 # Version information for this restart file 
 # current date 2022-01-04 02:51:04.845
 # current working dir /panfs/panfs.cbls.ccr.buffalo.edu/scratch/grp-alexeyak/mohammad/my_repositories/Tutorials_Libra/6_dynamics/2_nbra_workflows/6_step1_cp2k/2_xTB
 # Program compiled at                              Sun Dec 26 06:37:31 EST 2021
 # Program compiled on                           srv-p22-12.cbls.ccr.buffalo.edu
 # Program compiled for                                      Linux-x86-64-intelx
 # Source code revision number                                       git:310b7ab
 &GLOBAL
   PRINT_LEVEL  LOW
   PROJECT_NAME c3n4_1x1_MD_xTB
   RUN_TYPE  MD
 &END GLOBAL
 &MOTION
   &MD
     ENSEMBLE  NVT
     STEPS  200
     TIMESTEP     9.9999999999999989E-01
     STEP_START_VAL  200
     TIME_START_VAL     2.0000000000000014E+02
     ECONS_START_VAL    -1.5280226346493299E+02
     TEMPERATURE     3.0000000000000000E+02
     COMVEL_TOL     0.0000000000000000E+00
     &THERMOSTAT
       TYPE  CSVR
       REGION  GLOBAL
       &CSVR
         TIMECON     1.9999999999999996E+01
         &THERMOSTAT_ENERGY
              -7.2251927035338157E-02
         &END THERMOSTAT_ENERGY
         &RNG_INIT
Wiener process for Thermostat # 1        1 F T F  -2.7176565308726752E-01        4095861983.0        2226865016.0        1212378618.0        2594847829.0         254434741.0         265938284.0             12345.0             12345.0             12345.0             12345.0             12345.0             12345.0             12345.0             12345.0             12345.0             12345.0             12345.0             12345.0
         &END RNG_INIT
       &END CSVR
     &END THERMOSTAT
     &AVERAGES  T
       &RESTART_AVERAGES
         ITIMES_START  1
         AVECPU     1.0222463452816022E+00
         AVEHUGONIOT     0.0000000000000000E+00
         AVETEMP_BARO     0.0000000000000000E+00
         AVEPOT    -1.5282631000985657E+02
         AVEKIN     6.8044729604765541E-02
         AVETEMP     2.6044606706176836E+02
         AVEKIN_QM     0.0000000000000000E+00
         AVETEMP_QM     0.0000000000000000E+00
         AVEVOL     1.7781096356855644E+04
         AVECELL_A     2.6912559764708487E+01
         AVECELL_B     2.3308450920895634E+01
         AVECELL_C     2.8345891993290142E+01
         AVEALPHA     8.9989303588756115E+01
         AVEBETA     8.9992752075086997E+01
         AVEGAMMA     8.9999000549361256E+01
         AVE_ECONS     2.1801542699032792E+00
         AVE_PRESS     0.0000000000000000E+00
         AVE_PXX     0.0000000000000000E+00
       &END RESTART_AVERAGES
     &END AVERAGES
   &END MD
   &PRINT
     &TRAJECTORY  SILENT
       &EACH
         MD  1
       &END EACH
     &END TRAJECTORY
     &VELOCITIES  ON
     &END VELOCITIES
     &FORCES  ON
     &END FORCES
     &RESTART  SILENT
       BACKUP_COPIES  1
       &EACH
         MD  1
       &END EACH
     &END RESTART
   &END PRINT
 &END MOTION
 &FORCE_EVAL
   &DFT
     &SCF
       MAX_SCF  50
       EPS_SCF     1.0000000000000000E-08
       SCF_GUESS  ATOMIC
       &OT  T
         MINIMIZER  DIIS
         PRECONDITIONER  FULL_SINGLE_INVERSE
       &END OT
     &END SCF
     &QS
       METHOD  XTB
       &DISTRIBUTION
         BASIC_OPTIMIZATION  F
         BASIC_SPATIAL_OPTIMIZATION  T
       &END DISTRIBUTION
       &XTB
         DO_EWALD  T
         COULOMB_INTERACTION  T
         CHECK_ATOMIC_CHARGES  T
         &PARAMETER
           PARAM_FILE_NAME xTB_parameters
           DISPERSION_PARAMETER_FILE dftd3.dat
         &END PARAMETER
       &END XTB
     &END QS
     &POISSON
       POISSON_SOLVER  PERIODIC
       PERIODIC  XYZ
     &END POISSON
   &END DFT
   &SUBSYS
     &CELL
       A     1.4241513252300001E+01    0.0000000000000000E+00    0.0000000000000000E+00
       B     2.1515590000000003E-04    1.2334300993000001E+01    0.0000000000000000E+00
       C     1.8975023000000002E-03    2.8002807999999999E-03    1.4999999618600002E+01
       PERIODIC  XYZ
       MULTIPLE_UNIT_CELL  1 1 1
     &END CELL
     &COORD
C    6.6447949866795586E-01    6.8095182027204371E-01    7.3213881433967662E+00
C    1.8643205828793366E+00    2.7515627182993083E+00    7.1070284306360234E+00
C    5.4203985661557503E+00    6.7874984471411626E-01    7.4179635819546803E+00
C    4.2771889371326060E+00    2.6812178526861503E+00    7.0747216305236620E+00
C    7.7167777010632994E+00    6.6884461839861964E-01    7.7845498873168877E+00
C    6.5867169336318758E+00    2.6897388915351104E+00    7.1575813089794922E+00
C    8.8476676371260403E+00    2.6531098192917719E+00    7.4965580346401177E+00
C    1.2524740492581218E+01    7.6564773254870699E-01    7.3408769531274247E+00
C    1.1406393362340568E+01    2.7850893275742914E+00    7.3693775401445274E+00
C    1.3710190773945431E+01    2.8221746944652941E+00    7.1350794301487150E+00
C    3.0107944854746660E+00    4.8553764202604226E+00    7.2335578419040649E+00
C    1.8013622505452282E+00    6.8467462051285208E+00    7.3995252583898594E+00
C    6.3846755576606162E-01    8.8326757918101055E+00    7.6521186529380261E+00
C    4.2072509227900321E+00    6.9194835535502648E+00    7.4982990175307238E+00
C    2.9355440589993651E+00    8.8572997466120604E+00    7.8905766367952808E+00
C    5.2613562575766242E+00    8.8778488605513424E+00    7.7934131953260408E+00
C    1.0084415874457253E+01    4.8271919246901547E+00    7.6092675919540937E+00
C    8.8417902844337029E+00    6.7509012313762851E+00    7.7856166702085696E+00
C    7.7166832635602685E+00    8.7668615579525984E+00    7.7782469716177012E+00
C    6.4770573175624770E+00    1.1066466455845418E+01    7.7120170588501029E+00
C    1.1247656498097008E+01    6.8179744337973096E+00    7.6438072993496462E+00
C    1.0065795334384843E+01    8.8453828337284968E+00    7.7710562316634340E+00
C    1.2409052763673417E+01    8.8801723551932668E+00    7.6786141867584607E+00
C    1.3581106887507561E+01    1.1055757619888782E+01    7.4222147913228245E+00
N    5.3850369960335760E+00    1.1730170816206744E+01    7.4239270184495822E+00
N    6.5022165844153568E+00    9.6064046845645539E+00    7.8998846201091961E+00
N    7.6651550162708775E+00    7.4647187180339971E+00    7.8751535801691430E+00
N    8.8733371396309710E+00    5.4316235861483007E+00    7.7139470759704434E+00
N    7.6237249382118470E+00    1.1689605511839284E+01    7.9847137228036935E+00
N    8.8627868821024069E+00    9.4336890461813958E+00    7.6731988887707576E+00
N    1.0031326558558936E+01    7.4548751080184221E+00    7.7360642673092466E+00
N    1.1232889319424896E+01    5.5104396076661333E+00    7.6489954697924123E+00
N    1.1221182645253899E+01    9.5257665842815307E+00    7.8163476720687548E+00
N    1.2343581061498904E+01    7.5519440084962026E+00    7.6184015659432731E+00
N    1.3600771203382411E+01    9.6188179453492584E+00    7.5548814176206607E+00
N    1.2486031049519788E+01    1.1740797107414490E+01    7.4203409409391261E+00
N    6.3311228715565770E-01    3.4450604836782963E+00    7.0445030708057956E+00
N    1.7681340569181896E+00    1.4344169123251953E+00    7.1954463438205423E+00
N    3.0606261976849911E+00    3.4489901318602625E+00    7.0114918508609687E+00
N    5.4093271039739204E+00    3.3407112405075039E+00    6.9892703200009318E+00
N    7.7828826131109397E+00    3.2754397628356733E+00    7.0972372100283705E+00
N    8.8553089751546974E+00    1.3905689441771227E+00    7.8374001899299151E+00
N    6.5898171350757249E+00    1.3315794908263987E+00    7.4595573739384182E+00
N    4.3000653618191009E+00    1.3479917740175789E+00    7.2066130489354085E+00
N    1.0117027726568946E+01    3.4253580717529424E+00    7.4345132630512154E+00
N    1.1400682904583777E+01    1.4209458600629923E+00    7.3240109419999202E+00
N    1.2504440326371180E+01    3.3991453896424506E+00    7.1986208294217215E+00
N    1.3742150538236670E+01    1.4106648476786527E+00    7.3132390715268087E+00
N    5.3247768869119092E+00    7.5745161449896399E+00    7.5033461795307774E+00
N    4.0998948558641901E+00    9.4797403313634820E+00    7.9697146395091822E+00
N    5.6720583655384538E-01    1.1727912006477341E+01    7.4261608508179302E+00
N    1.7772255861045561E+00    9.4594940251931927E+00    7.9269710896368233E+00
N    2.9633677382443548E+00    7.5056209976935051E+00    7.6839848958861836E+00
N    4.1660798571059212E+00    5.5332875801568582E+00    7.3300700540373054E+00
N    1.8574473758850067E+00    5.5330948657818553E+00    7.2054001163841574E+00
N    6.1921269486504404E-01    7.5285899846658593E+00    7.4244681139433792E+00
     &END COORD
     &VELOCITY
          -4.7646685418460146E-04    1.7080529138143426E-04   -3.2583639261940816E-05
          -2.7868914575109505E-04    2.8551110082751882E-04   -9.0390730563831998E-05
           3.5582585529701788E-04    4.6419423787766121E-05    8.0627837128172264E-07
           2.1889006581859465E-04   -6.2071333502793303E-05   -3.3869572711194793E-04
          -2.5020838964773869E-04    2.7856520590547061E-04   -1.7672536030561707E-04
           1.1833511580144334E-04   -2.1328302960523272E-04   -1.6833865903647364E-04
          -5.3715025969543401E-04   -5.2386592625800886E-04    9.4501859222546067E-05
           4.0257446466563263E-04    5.2440298641196631E-05    3.4281387404787365E-04
           1.4034569952237140E-04   -3.2013501939369860E-04    2.3015532070589230E-04
          -3.2924613668116232E-04   -8.5633711107186331E-05    6.7553722668382962E-05
           6.0083623147575519E-05    8.3395117840638449E-05    3.5411777139331580E-04
           2.6483876420781616E-04    2.3925265502762932E-04   -1.4050140712131904E-04
           3.7395527973972263E-04    5.2667142090478187E-05   -1.9380516247912588E-04
          -8.9188696953932880E-05    1.9949528797521763E-05   -1.2516386018856328E-04
          -1.7568042541422636E-04   -2.6192940997443227E-04   -2.1226249305079475E-04
          -1.0641965850742086E-04   -2.6368478729631178E-04   -1.8481599609590181E-05
          -1.7867363793517193E-04    2.5777593969331043E-04    6.2400128760097188E-05
          -1.2577041924879788E-04   -1.0670845303089602E-04    3.3640978065601142E-05
           3.7772690204676887E-04   -2.9024537092335693E-04   -7.2756030167251163E-05
           4.8575640882887045E-04    1.1058871632986430E-04   -3.0713566174940657E-04
          -1.2448716699299761E-04    3.9067610398733920E-04   -9.3002318006121031E-05
          -1.8158292370138461E-06   -3.8969351502572463E-05   -1.0915096122757346E-04
           1.5507634245624901E-05   -1.8401282379864489E-04    6.5672323538803825E-05
           2.0281331817919706E-04    4.7702759920450891E-05   -6.9751936553845114E-05
           3.9442233833931574E-05   -5.0645268501926875E-06    8.2481230580837788E-05
          -1.5764524198378239E-04   -6.9213667832874277E-05    5.8403556077428424E-05
          -9.2630396895123374E-05    3.9491117198066232E-05    1.6235588717643460E-04
          -9.9022714570449959E-05   -1.0905719102715102E-04   -9.0162541138271517E-05
           2.1336025804079251E-04    9.6745140655543483E-05    1.2496854126271614E-04
           3.4243626007981174E-05    2.3120684328233553E-04    2.9505248530713841E-04
           1.6459683566072913E-04    8.8977378302251530E-06   -2.6549297563084971E-05
           2.4771837304247616E-04    4.4554980930405982E-05   -5.2872004625382151E-04
           2.2510514549934586E-04    2.6991058889283721E-04    4.0866939961446200E-05
           6.7507772626214976E-05   -7.3776788607069654E-05    1.1836017554315588E-04
          -3.4426944886774284E-05   -3.4950075495064669E-04    8.7278629752440774E-05
          -1.2873976726113782E-04    4.9722651491080758E-05    2.6889068173893003E-05
           5.3557266247487635E-05   -3.5660178679166942E-05    1.9909657439344200E-04
          -2.2352360972924606E-04    3.5890078462034731E-05   -1.8983007136847720E-04
          -6.3544705414253608E-05   -2.3982669324678938E-04    2.0087682583675706E-04
           2.3203863670517795E-04   -1.5820425467738371E-04   -3.2488964917495270E-04
          -6.7740997138354307E-05   -2.3643486535773417E-04   -1.7250053821107604E-04
          -3.0450388810055026E-04    1.3788293743142161E-04   -3.5356659704790639E-06
           1.3563493839106571E-05    2.1501226578914335E-04    1.9018127803895440E-04
           1.9928594020004863E-05    7.1849522808114030E-05    1.5645697287905587E-04
          -1.4645612932840966E-04    3.0033294855708097E-04   -4.1189779164268148E-05
          -5.8119138502606333E-05   -1.2548377262967361E-04    3.5414346447580982E-04
           4.5621069772419344E-05    2.5752069721706367E-04    2.9427501655951969E-04
          -1.5971252002232038E-04   -2.3521658426645385E-04    1.2530308577269632E-04
           2.9643890868177208E-04   -1.7752091389478948E-04   -3.7689695399922119E-04
          -2.3788549764749842E-04    5.2314913030432201E-04    3.3855811269088227E-04
          -9.0161694519778618E-06   -7.7543064055286641E-05   -3.3417487858599049E-04
          -1.8373595779550960E-04    1.1091729153975417E-04    1.0903469536036269E-04
          -1.8161335486940793E-04   -3.7357781278937360E-05   -2.1541110062516311E-04
           1.5386226987937148E-04    3.2832656212625315E-05   -1.6629577203508786E-04
           2.3005258894414970E-04   -2.0664985875098193E-05    3.0643078491655624E-04
          -1.8271838997018465E-04   -2.0545921550279263E-04   -3.1611007900912684E-05
     &END VELOCITY
     &TOPOLOGY
       COORD_FILE_NAME C3N4_1x1.xyz
       COORD_FILE_FORMAT  XYZ
       NUMBER_OF_ATOMS  56
       MULTIPLE_UNIT_CELL  1 1 1
       &CENTER_COORDINATES  T
       &END CENTER_COORDINATES
     &END TOPOLOGY
   &END SUBSYS
 &END FORCE_EVAL
