 &GLOBAL
   PRINT_LEVEL  MEDIUM
   PROJECT_NAME Rutile_TiO2_MD
   RUN_TYPE  MD
 &END GLOBAL
 &FORCE_EVAL
  METHOD  QS
  &DFT
    UKS .FALSE. 
    BASIS_SET_FILE_NAME BASIS_MOLOPT
    POTENTIAL_FILE_NAME POTENTIAL 
    &MGRID
      NGRIDS 16
      CUTOFF 500
      REL_CUTOFF 50
    &END MGRID
    &QS
      METHOD GPW
      EPS_DEFAULT 1.000E-14
    &END QS
    &POISSON
      PERIODIC XYZ 
      PSOLVER PERIODIC
    &END
    &SCF
      &DIAGONALIZATION ON
      &END DIAGONALIZATION
      &MIXING
        ALPHA 0.3
        METHOD BROYDEN_MIXING
        NBROYDEN 8
      &END MIXING
      EPS_SCF 1.0E-6
      SCF_GUESS ATOMIC
      MAX_SCF  50
      ADDED_MOS 50
    &END SCF
    &XC
      &XC_FUNCTIONAL
         &PBE
         &END PBE
      &END XC_FUNCTIONAL
      &VDW_POTENTIAL
         POTENTIAL_TYPE PAIR_POTENTIAL 
         &PAIR_POTENTIAL
            PARAMETER_FILE_NAME dftd3.dat
            TYPE DFTD3
            REFERENCE_FUNCTIONAL PBE
            R_CUTOFF [angstrom] 16
         &END
      &END VDW_POTENTIAL
    &END XC
    &PRINT
      &MULLIKEN OFF
      &END
      &HIRSHFELD OFF
      &END
    &END PRINT
  &END DFT
  &SUBSYS

    &CELL
      A         4.6532721519         0.0000000000         0.0000000000
      B         0.0000000000         4.6532721519         0.0000000000
      C         0.0000000000         0.0000000000         2.9692029953
      PERIODIC  XYZ 
    &END CELL

    &TOPOLOGY
      COORD_FILE_NAME TiO2_unit_cell.xyz
      COORD_FILE_FORMAT XYZ
      ! Only in case you use cif file
      !&GENERATE
      !  REORDER T
      !&END
    &END

    &KIND  Ti
      BASIS_SET DZVP-MOLOPT-SR-GTH 
      POTENTIAL GTH-PBE-q12 
    &END KIND
    &KIND  O
      BASIS_SET DZVP-MOLOPT-GTH
      POTENTIAL GTH-PBE-q6
    &END KIND
  &END SUBSYS
 &END FORCE_EVAL

&MOTION
 &MD
   ENSEMBLE NVT
   TEMPERATURE [K] 300
   TIMESTEP [fs] 1.0
   STEPS 2000
   &THERMOSTAT
     REGION GLOBAL
     TYPE CSVR
	 &CSVR
           ! adapt it based on the Ti-O stretch mode frequency
	   TIMECON 20
	 &END
   &END THERMOSTAT
 &END
 &PRINT
   &TRAJECTORY
     &EACH
       MD 1
     &END EACH
   &END TRAJECTORY
   &VELOCITIES ON
   &END VELOCITIES
   &FORCES ON
   &END FORCES
   &RESTART
     BACKUP_COPIES 1
     &EACH
       MD 1
     &END EACH
   &END RESTART
 &END PRINT 
&END 
