&PROJWFC
  outdir='./'
  prefix='x'
  DeltaE=0.1
/

