
&GLOBAL
  PROJECT Ti17
  RUN_TYPE ENERGY
  PRINT_LEVEL LOW
&END GLOBAL
 
&FORCE_EVAL
  CHARGE 0
  MULTIPLICITY 1
  UKS .FALSE.
  
  &DFT
    BASIS_SET_FILE_NAME BASIS_MOLOPT
    BASIS_SET_FILE_NAME BASIS_ADMM
    BASIS_SET_FILE_NAME BASIS_ADMM_MOLOPT
    BASIS_SET_FILE_NAME GTH_BASIS_SETS
    POTENTIAL_FILE_NAME GTH_POTENTIALS

    
    
    
    &QS
      METHOD xTB
      
      &xTB
        DO_EWALD  F
        CHECK_ATOMIC_CHARGES  F
        COULOMB_INTERACTION T
        &PARAMETER
          DISPERSION_PARAMETER_FILE dftd3.dat
          PARAM_FILE_NAME xTB_parameters
        &END PARAMETER
      &END xTB
        

      &POISSON
        POISSON_SOLVER PERIODIC
        PERIODIC XYZ      
      &END POISSON  
      
      &SCF
        MAX_SCF 100
        SCF_GUESS RESTART
        EPS_SCF 1.e-6        
        
        &DIAGONALIZATION
          &DAVIDSON
            PRECONDITIONER FULL_ALL
            ENERGY_GAP 0.001
          &END
        &END DIAGONALIZATION
        
        
        ADDED_MOS 20
        
        
      &END SCF
    
    &END QS
    
    
    &EXCITED_STATES
      STATE 1
    &END
        
    
    &PRINT
      &MO
        ENERGIES .TRUE.
        OCCUPATION_NUMBERS .TRUE.
        NDIGITS 8
        &EACH
          QS_SCF 0
        &END
      &END
    &END
    
  &END DFT

    
  
  &PROPERTIES
    &TDDFPT
      KERNEL STDA
      NSTATES     2     # number of excited states
      MAX_ITER    200           # maximum number of Davidson iterations
      CONVERGENCE [eV] 1.0e-5   # convergence on maximum energy change between iterations

      &MGRID
        NGRIDS 4
        CUTOFF 500 # separate cutoff for TDDFPT calc
      &END
!        Only in case you have a tdwfn file from previous calculations
!       RESTART     .TRUE.
!       WFN_RESTART_FILE_NAME RESTART.tdwfn
    &END TDDFPT
  &END PROPERTIES
    
  
  &SUBSYS
    
    &CELL
      A 30.0 0.0 0.0
      B 0.0 30.0 0.0
      C 0.0 0.0 30.0
      PERIODIC XYZ
    &END CELL
    
    
    &TOPOLOGY   
      COORD_FILE_NAME inp.xyz
      COORD_FILE_FORMAT XYZ
      &CENTER_COORDINATES T
      &END
    &END    
    
    
    &KIND H
      ELEMENT H
      BASIS_SET ORB DZVP-MOLOPT-GTH
      BASIS_SET AUX_FIT cFIT6  ! this value is taken from the Mohammad's example for Pb
      POTENTIAL GTH-PBE-q4
      
    &END
        
    &KIND Ti
      ELEMENT Ti
      BASIS_SET ORB DZVP-MOLOPT-SR-GTH
      BASIS_SET AUX_FIT cFIT6  ! this value is taken from the Mohammad's example for Pb
      POTENTIAL GTH-PBE-q12
      
    &END
        
  &END SUBSYS
    
&END FORCE_EVAL
