 DBCSR| CPU Multiplication driver                                           BLAS (U)
 DBCSR| Multrec recursion limit                                              512 (U)
 DBCSR| Multiplication stack size                                           1000 (D)
 DBCSR| Maximum elements for images                                    UNLIMITED (U)
 DBCSR| Multiplicative factor virtual images                                   1 (U)
 DBCSR| Use multiplication densification                                       T (D)
 DBCSR| Multiplication size stacks                                             3 (U)
 DBCSR| Use memory pool for CPU allocation                                     F (U)
 DBCSR| Number of 3D layers                                               SINGLE (U)
 DBCSR| Use MPI memory allocation                                              F (U)
 DBCSR| Use RMA algorithm                                                      F (U)
 DBCSR| Use Communication thread                                               T (U)
 DBCSR| Communication thread load                                             75 (D)
 DBCSR| MPI: My process id                                                     0
 DBCSR| MPI: Number of processes                                               6
 DBCSR| OMP: Current number of threads                                         4
 DBCSR| OMP: Max number of threads                                             4
 DBCSR| Split modifier for TAS multiplication algorithm                  1.0E+00 (U)


  **** **** ******  **  PROGRAM STARTED AT               2026-06-22 12:22:41.112
 ***** ** ***  *** **   PROGRAM STARTED ON        cpn-b01-35-01.core.ccr.buffalo
 **    ****   ******    PROGRAM STARTED BY                              alexeyak
 ***** **    ** ** **   PROGRAM PROCESS ID                               4008327
  **** **  *******  **  PROGRAM STARTED IN /projects/academic/cyberwksp21/Studen
                                           ts/alexeyak/libra_examples/Tutorials_
                                           Libra/6_dynamics/2_nbra_workflows/6_s
                                           tep1_cp2k/1_DFT/3_example_TiO2_June_2
                                           026

 CP2K| version string:                 CP2K version 2025.2 (Development Version)
 CP2K| source code revision number:                                  git:b2e41f9
 CP2K| cp2kflags: omp libint fftw3 libxc libgrpp elpa parallel scalapack cosma a
 CP2K|            ce deepmd xsmm plumed2 spglib libdftd4 mctc-lib tblite sirius
 CP2K|             libvori libbqb libtorch libvdwxc hdf5 trexio libsmeagol green
 CP2K|            nx
 CP2K| is freely available from                            https://www.cp2k.org/
 CP2K| Program compiled at                       Fri Nov 21 01:15:09 PM EST 2025
 CP2K| Program compiled on                       cpn-c01-31.core.ccr.buffalo.edu
 CP2K| Program compiled for                                                local
 CP2K| Data directory path    /projects/academic/cyberwksp21/SOFTWARE_NEW_ENV/cp
 CP2K| Input file name                                                    md.inp

 GLOBAL| Force Environment number                                              1
 GLOBAL| Basis set file name                                        BASIS_MOLOPT
 GLOBAL| Potential file name                                           POTENTIAL
 GLOBAL| MM Potential file name                                     MM_POTENTIAL
 GLOBAL| Coordinate file name                                 TiO2_unit_cell.xyz
 GLOBAL| Method name                                                        CP2K
 GLOBAL| Project name                                             Rutile_TiO2_MD
 GLOBAL| Run type                                                             MD
 GLOBAL| FFT library                                                       FFTW3
 GLOBAL| Diagonalization library                                            ELPA
 GLOBAL| Cholesky decomposition library                                ScaLAPACK
 GLOBAL| DGEMM library                                                      BLAS
 GLOBAL| Minimum number of eigenvectors for ELPA usage                        16
 GLOBAL| Orthonormality check for eigenvectors                          DISABLED
 GLOBAL| Matrix multiplication library                                     COSMA
 GLOBAL| All-to-all communication in single precision                          F
 GLOBAL| FFTs using library dependent lengths                                  F
 GLOBAL| Grid backend                                                       AUTO
 GLOBAL| Global print level                                               MEDIUM
 GLOBAL| MPI I/O enabled                                                       T
 GLOBAL| Total number of message passing processes                             6
 GLOBAL| Number of distributed systems (nodes)                                 1
 GLOBAL| Number of threads for this process                                    4
 GLOBAL| This output is from process                                           0
 GLOBAL| OpenMP stack size per thread (OMP_STACKSIZE)                    default
 GLOBAL| CPU model name                 Intel(R) Xeon(R) Gold 6230 CPU @ 2.10GHz
 GLOBAL| CPUID                                                              1003

 MEMORY| system memory details [Kb]
 MEMORY|                        rank 0           min           max       average
 MEMORY| MemTotal            791035752     791035752     791035752     791035752
 MEMORY| MemFree             177505084     177505084     177505084     177505084
 MEMORY| Buffers                991212        991212        991212        991212
 MEMORY| Cached              600556788     600556788     600556788     600556788
 MEMORY| Slab                  4823424       4823424       4823424       4823424
 MEMORY| SReclaimable          4084064       4084064       4084064       4084064
 MEMORY| MemLikelyFree       783137148     783137148     783137148     783137148


 *** Fundamental physical constants (SI units) ***

 *** Literature: B. J. Mohr and B. N. Taylor,
 ***             CODATA recommended values of the fundamental physical
 ***             constants: 2006, Web Version 5.1
 ***             http://physics.nist.gov/constants

 Speed of light in vacuum [m/s]                             2.99792458000000E+08
 Magnetic constant or permeability of vacuum [N/A**2]       1.25663706143592E-06
 Electric constant or permittivity of vacuum [F/m]          8.85418781762039E-12
 Planck constant (h) [J*s]                                  6.62606896000000E-34
 Planck constant (h-bar) [J*s]                              1.05457162825177E-34
 Elementary charge [C]                                      1.60217648700000E-19
 Electron mass [kg]                                         9.10938215000000E-31
 Electron g factor [ ]                                     -2.00231930436220E+00
 Proton mass [kg]                                           1.67262163700000E-27
 Fine-structure constant                                    7.29735253760000E-03
 Rydberg constant [1/m]                                     1.09737315685270E+07
 Avogadro constant [1/mol]                                  6.02214179000000E+23
 Boltzmann constant [J/K]                                   1.38065040000000E-23
 Atomic mass unit [kg]                                      1.66053878200000E-27
 Bohr radius [m]                                            5.29177208590000E-11

 *** Conversion factors ***

 [u] -> [a.u.]                                              1.82288848426455E+03
 [Angstrom] -> [Bohr] = [a.u.]                              1.88972613288564E+00
 [a.u.] = [Bohr] -> [Angstrom]                              5.29177208590000E-01
 [a.u.] -> [s]                                              2.41888432650478E-17
 [a.u.] -> [fs]                                             2.41888432650478E-02
 [a.u.] -> [J]                                              4.35974393937059E-18
 [a.u.] -> [N]                                              8.23872205491840E-08
 [a.u.] -> [K]                                              3.15774647902944E+05
 [a.u.] -> [kJ/mol]                                         2.62549961709828E+03
 [a.u.] -> [kcal/mol]                                       6.27509468713739E+02
 [a.u.] -> [Pa]                                             2.94210107994716E+13
 [a.u.] -> [bar]                                            2.94210107994716E+08
 [a.u.] -> [atm]                                            2.90362800883016E+08
 [a.u.] -> [eV]                                             2.72113838565563E+01
 [a.u.] -> [Hz]                                             6.57968392072181E+15
 [a.u.] -> [1/cm] (wave numbers)                            2.19474631370540E+05
 [a.u./Bohr**2] -> [1/cm]                                   5.14048714338585E+03
 

 CELL_TOP| Volume [angstrom^3]:                                        64.291979
 CELL_TOP| Vector a [angstrom     4.653     0.000     0.000   |a| =     4.653272
 CELL_TOP| Vector b [angstrom     0.000     4.653     0.000   |b| =     4.653272
 CELL_TOP| Vector c [angstrom     0.000     0.000     2.969   |c| =     2.969203
 CELL_TOP| Angle (b,c), alpha [degree]:                                90.000000
 CELL_TOP| Angle (a,c), beta  [degree]:                                90.000000
 CELL_TOP| Angle (a,b), gamma [degree]:                                90.000000
 CELL_TOP| Numerically orthorhombic:                                         YES
 CELL_TOP| Periodicity                                                       XYZ

 GENERATE|  Preliminary Number of Bonds generated:                             0
 GENERATE|  Achieved consistency in connectivity generation.

 CELL| Volume [angstrom^3]:                                            64.291979
 CELL| Vector a [angstrom]:       4.653     0.000     0.000   |a| =     4.653272
 CELL| Vector b [angstrom]:       0.000     4.653     0.000   |b| =     4.653272
 CELL| Vector c [angstrom]:       0.000     0.000     2.969   |c| =     2.969203
 CELL| Angle (b,c), alpha [degree]:                                    90.000000
 CELL| Angle (a,c), beta  [degree]:                                    90.000000
 CELL| Angle (a,b), gamma [degree]:                                    90.000000
 CELL| Numerically orthorhombic:                                             YES
 CELL| Periodicity                                                           XYZ

 CELL_REF| Volume [angstrom^3]:                                        64.291979
 CELL_REF| Vector a [angstrom     4.653     0.000     0.000   |a| =     4.653272
 CELL_REF| Vector b [angstrom     0.000     4.653     0.000   |b| =     4.653272
 CELL_REF| Vector c [angstrom     0.000     0.000     2.969   |c| =     2.969203
 CELL_REF| Angle (b,c), alpha [degree]:                                90.000000
 CELL_REF| Angle (a,c), beta  [degree]:                                90.000000
 CELL_REF| Angle (a,b), gamma [degree]:                                90.000000
 CELL_REF| Numerically orthorhombic:                                         YES
 CELL_REF| Periodicity                                                       XYZ

 *******************************************************************************
 *******************************************************************************
 **                                                                           **
 **     #####                         ##              ##                      **
 **    ##   ##            ##          ##              ##                      **
 **   ##     ##                       ##            ######                    **
 **   ##     ##  ##   ##  ##   #####  ##  ##   ####   ##    #####    #####    **
 **   ##     ##  ##   ##  ##  ##      ## ##   ##      ##   ##   ##  ##   ##   **
 **   ##  ## ##  ##   ##  ##  ##      ####     ###    ##   ######   ######    **
 **    ##  ###   ##   ##  ##  ##      ## ##      ##   ##   ##       ##        **
 **     #######   #####   ##   #####  ##  ##  ####    ##    #####   ##        **
 **           ##                                                    ##        **
 **                                                                           **
 **                                                ... make the atoms dance   **
 **                                                                           **
 **            Copyright (C) by CP2K developers group (2000-2025)             **
 **                      J. Chem. Phys. 152, 194103 (2020)                    **
 **                                                                           **
 *******************************************************************************

 DFT| Spin restricted Kohn-Sham (RKS) calculation                            RKS
 DFT| Multiplicity                                                             1
 DFT| Number of spin states                                                    1
 DFT| Charge                                                                   0
 DFT| Self-interaction correction (SIC)                                       NO
 DFT| Cutoffs: density                                              1.000000E-10
 DFT|          gradient                                             1.000000E-10
 DFT|          tau                                                  1.000000E-10
 DFT|          cutoff_smoothing_range                               0.000000E+00
 DFT| XC density smoothing                                                  NONE
 DFT| XC derivatives                                                          PW

 FUNCTIONAL| PBE:
 FUNCTIONAL| J.P.Perdew, K.Burke, M.Ernzerhof, Phys. Rev. Letter, vol. 77, n 18,
 FUNCTIONAL|  pp. 3865-3868, (1996) {spin unpolarized}                          

 vdW POTENTIAL|                                                   Pair Potential
 vdW POTENTIAL|          DFT-D3 (Version 3.1)
 vdW POTENTIAL|          Potential Form: S. Grimme et al, JCP 132: 154104 (2010)
 vdW POTENTIAL|          Zero Damping
 vdW POTENTIAL|          Cutoff Radius [Bohr]:                             30.24
 vdW POTENTIAL|          s6 Scaling Factor:                               1.0000
 vdW POTENTIAL|          sr6 Scaling Factor:                              1.2170
 vdW POTENTIAL|          s8 Scaling Factor:                               0.7220
 vdW POTENTIAL|          Cutoff for CN calculation:                   0.1000E-05

 QS| Method:                                                                 GPW
 QS| Density plane wave grid type                        NON-SPHERICAL FULLSPACE
 QS| Number of grid levels:                                                   16
 QS| Density cutoff [a.u.]:                                                250.0
 QS| Multi grid cutoff [a.u.]: 1) grid level                               250.0
 QS|                           2) grid level                                83.3
 QS|                           3) grid level                                27.8
 QS|                           4) grid level                                 9.3
 QS|                           5) grid level                                 3.1
 QS|                           6) grid level                                 1.0
 QS|                           7) grid level                                 0.3
 QS|                           8) grid level                                 0.1
 QS|                           9) grid level                                 0.0
 QS|                          10) grid level                                 0.0
 QS|                          11) grid level                                 0.0
 QS|                          12) grid level                                 0.0
 QS|                          13) grid level                                 0.0
 QS|                          14) grid level                                 0.0
 QS|                          15) grid level                                 0.0
 QS|                          16) grid level                                 0.0
 QS| Grid level progression factor:                                          3.0
 QS| Relative density cutoff [a.u.]:                                        25.0
 QS| Interaction thresholds: eps_pgf_orb:                                1.0E-07
 QS|                         eps_filter_matrix:                          0.0E+00
 QS|                         eps_core_charge:                            1.0E-16
 QS|                         eps_rho_gspace:                             1.0E-14
 QS|                         eps_rho_rspace:                             1.0E-14
 QS|                         eps_gvg_rspace:                             1.0E-07
 QS|                         eps_ppl:                                    1.0E-02
 QS|                         eps_ppnl:                                   1.0E-09


 ATOMIC KIND INFORMATION

  1. Atomic kind: Ti                                    Number of atoms:       2

     Orbital Basis Set                                        DZVP-MOLOPT-SR-GTH

       Number of orbital shell sets:                                           1
       Number of orbital shells:                                               8
       Number of primitive Cartesian functions:                                6
       Number of Cartesian basis functions:                                   31
       Number of spherical basis functions:                                   26
       Norm type:                                                              2

       Normalised Cartesian orbitals:

                        Set   Shell   Orbital            Exponent    Coefficient

                          1       1    2s                7.884570       0.015554
                                                         3.894698       0.963603
                                                         1.513589      -0.631435
                                                         0.596768      -0.343022
                                                         0.222222      -0.006534
                                                         0.077078       0.007652

                          1       2    3s                7.884570      -0.009340
                                                         3.894698       0.212624
                                                         1.513589      -0.258368
                                                         0.596768      -0.226206
                                                         0.222222       0.039438
                                                         0.077078       0.107179

                          1       3    4s                7.884570       0.276563
                                                         3.894698       0.105452
                                                         1.513589       0.085149
                                                         0.596768       0.882541
                                                         0.222222      -0.696223
                                                         0.077078       0.156638

                          1       4    3px               7.884570      -2.034794
                                                         3.894698       0.782008
                                                         1.513589       1.253903
                                                         0.596768       0.347823
                                                         0.222222       0.016778
                                                         0.077078      -0.000433
                          1       4    3py               7.884570      -2.034794
                                                         3.894698       0.782008
                                                         1.513589       1.253903
                                                         0.596768       0.347823
                                                         0.222222       0.016778
                                                         0.077078      -0.000433
                          1       4    3pz               7.884570      -2.034794
                                                         3.894698       0.782008
                                                         1.513589       1.253903
                                                         0.596768       0.347823
                                                         0.222222       0.016778
                                                         0.077078      -0.000433

                          1       5    4px               7.884570       0.376572
                                                         3.894698      -0.182875
                                                         1.513589      -0.474776
                                                         0.596768      -0.081757
                                                         0.222222       0.064432
                                                         0.077078       0.047279
                          1       5    4py               7.884570       0.376572
                                                         3.894698      -0.182875
                                                         1.513589      -0.474776
                                                         0.596768      -0.081757
                                                         0.222222       0.064432
                                                         0.077078       0.047279
                          1       5    4pz               7.884570       0.376572
                                                         3.894698      -0.182875
                                                         1.513589      -0.474776
                                                         0.596768      -0.081757
                                                         0.222222       0.064432
                                                         0.077078       0.047279

                          1       6    4dx2              7.884570       3.047350
                                                         3.894698       3.289529
                                                         1.513589       1.060616
                                                         0.596768       0.249930
                                                         0.222222       0.038806
                                                         0.077078       0.002319
                          1       6    4dxy              7.884570       5.278165
                                                         3.894698       5.697631
                                                         1.513589       1.837041
                                                         0.596768       0.432892
                                                         0.222222       0.067214
                                                         0.077078       0.004017
                          1       6    4dxz              7.884570       5.278165
                                                         3.894698       5.697631
                                                         1.513589       1.837041
                                                         0.596768       0.432892
                                                         0.222222       0.067214
                                                         0.077078       0.004017
                          1       6    4dy2              7.884570       3.047350
                                                         3.894698       3.289529
                                                         1.513589       1.060616
                                                         0.596768       0.249930
                                                         0.222222       0.038806
                                                         0.077078       0.002319
                          1       6    4dyz              7.884570       5.278165
                                                         3.894698       5.697631
                                                         1.513589       1.837041
                                                         0.596768       0.432892
                                                         0.222222       0.067214
                                                         0.077078       0.004017
                          1       6    4dz2              7.884570       3.047350
                                                         3.894698       3.289529
                                                         1.513589       1.060616
                                                         0.596768       0.249930
                                                         0.222222       0.038806
                                                         0.077078       0.002319

                          1       7    5dx2              7.884570      -2.119015
                                                         3.894698      -1.237751
                                                         1.513589      -0.746777
                                                         0.596768      -0.071514
                                                         0.222222       0.004086
                                                         0.077078       0.017595
                          1       7    5dxy              7.884570      -3.670241
                                                         3.894698      -2.143848
                                                         1.513589      -1.293455
                                                         0.596768      -0.123865
                                                         0.222222       0.007077
                                                         0.077078       0.030475
                          1       7    5dxz              7.884570      -3.670241
                                                         3.894698      -2.143848
                                                         1.513589      -1.293455
                                                         0.596768      -0.123865
                                                         0.222222       0.007077
                                                         0.077078       0.030475
                          1       7    5dy2              7.884570      -2.119015
                                                         3.894698      -1.237751
                                                         1.513589      -0.746777
                                                         0.596768      -0.071514
                                                         0.222222       0.004086
                                                         0.077078       0.017595
                          1       7    5dyz              7.884570      -3.670241
                                                         3.894698      -2.143848
                                                         1.513589      -1.293455
                                                         0.596768      -0.123865
                                                         0.222222       0.007077
                                                         0.077078       0.030475
                          1       7    5dz2              7.884570      -2.119015
                                                         3.894698      -1.237751
                                                         1.513589      -0.746777
                                                         0.596768      -0.071514
                                                         0.222222       0.004086
                                                         0.077078       0.017595

                          1       8    5fx3              7.884570      -0.342058
                                                         3.894698       0.375798
                                                         1.513589      -0.706469
                                                         0.596768      -0.229994
                                                         0.222222      -0.012723
                                                         0.077078       0.003932
                          1       8    5fx2y             7.884570      -0.764866
                                                         3.894698       0.840310
                                                         1.513589      -1.579712
                                                         0.596768      -0.514282
                                                         0.222222      -0.028450
                                                         0.077078       0.008792
                          1       8    5fx2z             7.884570      -0.764866
                                                         3.894698       0.840310
                                                         1.513589      -1.579712
                                                         0.596768      -0.514282
                                                         0.222222      -0.028450
                                                         0.077078       0.008792
                          1       8    5fxy2             7.884570      -0.764866
                                                         3.894698       0.840310
                                                         1.513589      -1.579712
                                                         0.596768      -0.514282
                                                         0.222222      -0.028450
                                                         0.077078       0.008792
                          1       8    5fxyz             7.884570      -1.324787
                                                         3.894698       1.455460
                                                         1.513589      -2.736142
                                                         0.596768      -0.890763
                                                         0.222222      -0.049276
                                                         0.077078       0.015229
                          1       8    5fxz2             7.884570      -0.764866
                                                         3.894698       0.840310
                                                         1.513589      -1.579712
                                                         0.596768      -0.514282
                                                         0.222222      -0.028450
                                                         0.077078       0.008792
                          1       8    5fy3              7.884570      -0.342058
                                                         3.894698       0.375798
                                                         1.513589      -0.706469
                                                         0.596768      -0.229994
                                                         0.222222      -0.012723
                                                         0.077078       0.003932
                          1       8    5fy2z             7.884570      -0.764866
                                                         3.894698       0.840310
                                                         1.513589      -1.579712
                                                         0.596768      -0.514282
                                                         0.222222      -0.028450
                                                         0.077078       0.008792
                          1       8    5fyz2             7.884570      -0.764866
                                                         3.894698       0.840310
                                                         1.513589      -1.579712
                                                         0.596768      -0.514282
                                                         0.222222      -0.028450
                                                         0.077078       0.008792
                          1       8    5fz3              7.884570      -0.342058
                                                         3.894698       0.375798
                                                         1.513589      -0.706469
                                                         0.596768      -0.229994
                                                         0.222222      -0.012723
                                                         0.077078       0.003932

       Atomic covalent radius [Angstrom]:                                  1.320

       Atomic van der Waals radius [Angstrom]:                             1.760

     GTH Potential information for                                   GTH-PBE-q12

       Description:                       Goedecker-Teter-Hutter pseudopotential
                                           Goedecker et al., PRB 54, 1703 (1996)
                                          Hartwigsen et al., PRB 58, 3641 (1998)
                                                      Krack, TCA 114, 145 (2005)

       Gaussian exponent of the core charge distribution:               3.462604
       Electronic configuration (s p d ...):                           4   6   2

       Parameters of the local part of the GTH pseudopotential:

                          rloc        C1          C2          C3          C4
                        0.380000    8.711442   -0.700287

       Parameters of the non-local part of the GTH pseudopotential:

                   l      r(l)      h(i,j,l)

                   0    0.337771    2.575264    3.692971
                                    3.692971   -4.767605
                   1    0.242531   -4.630541    8.870875
                                    8.870875  -10.496161
                   2    0.243317   -9.406653

  2. Atomic kind: O                                     Number of atoms:       4

     Orbital Basis Set                                           DZVP-MOLOPT-GTH

       Number of orbital shell sets:                                           1
       Number of orbital shells:                                               5
       Number of primitive Cartesian functions:                                7
       Number of Cartesian basis functions:                                   14
       Number of spherical basis functions:                                   13
       Norm type:                                                              2

       Normalised Cartesian orbitals:

                        Set   Shell   Orbital            Exponent    Coefficient

                          1       1    2s               12.015955      -0.284499
                                                         5.108150      -0.322498
                                                         2.048398       0.148191
                                                         0.832382       0.295475
                                                         0.352316       0.150829
                                                         0.142977       0.015788
                                                         0.046761      -0.000019

                          1       2    3s               12.015955       0.725622
                                                         5.108150       0.644384
                                                         2.048398      -0.157350
                                                         0.832382      -0.853528
                                                         0.352316       0.146068
                                                         0.142977       0.153978
                                                         0.046761       0.000658

                          1       3    3px              12.015955       1.192141
                                                         5.108150       1.354170
                                                         2.048398       0.897267
                                                         0.832382       0.408839
                                                         0.352316       0.116648
                                                         0.142977       0.022184
                                                         0.046761       0.000308
                          1       3    3py              12.015955       1.192141
                                                         5.108150       1.354170
                                                         2.048398       0.897267
                                                         0.832382       0.408839
                                                         0.352316       0.116648
                                                         0.142977       0.022184
                                                         0.046761       0.000308
                          1       3    3pz              12.015955       1.192141
                                                         5.108150       1.354170
                                                         2.048398       0.897267
                                                         0.832382       0.408839
                                                         0.352316       0.116648
                                                         0.142977       0.022184
                                                         0.046761       0.000308

                          1       4    4px              12.015955      -1.062381
                                                         5.108150      -1.285791
                                                         2.048398      -0.727000
                                                         0.832382      -0.522764
                                                         0.352316       0.182681
                                                         0.142977       0.087560
                                                         0.046761       0.000981
                          1       4    4py              12.015955      -1.062381
                                                         5.108150      -1.285791
                                                         2.048398      -0.727000
                                                         0.832382      -0.522764
                                                         0.352316       0.182681
                                                         0.142977       0.087560
                                                         0.046761       0.000981
                          1       4    4pz              12.015955      -1.062381
                                                         5.108150      -1.285791
                                                         2.048398      -0.727000
                                                         0.832382      -0.522764
                                                         0.352316       0.182681
                                                         0.142977       0.087560
                                                         0.046761       0.000981

                          1       5    4dx2             12.015955       1.125955
                                                         5.108150       1.160468
                                                         2.048398       0.999335
                                                         0.832382       0.756334
                                                         0.352316       0.048604
                                                         0.142977       0.010378
                                                         0.046761      -0.000027
                          1       5    4dxy             12.015955       1.950212
                                                         5.108150       2.009990
                                                         2.048398       1.730899
                                                         0.832382       1.310009
                                                         0.352316       0.084185
                                                         0.142977       0.017974
                                                         0.046761      -0.000046
                          1       5    4dxz             12.015955       1.950212
                                                         5.108150       2.009990
                                                         2.048398       1.730899
                                                         0.832382       1.310009
                                                         0.352316       0.084185
                                                         0.142977       0.017974
                                                         0.046761      -0.000046
                          1       5    4dy2             12.015955       1.125955
                                                         5.108150       1.160468
                                                         2.048398       0.999335
                                                         0.832382       0.756334
                                                         0.352316       0.048604
                                                         0.142977       0.010378
                                                         0.046761      -0.000027
                          1       5    4dyz             12.015955       1.950212
                                                         5.108150       2.009990
                                                         2.048398       1.730899
                                                         0.832382       1.310009
                                                         0.352316       0.084185
                                                         0.142977       0.017974
                                                         0.046761      -0.000046
                          1       5    4dz2             12.015955       1.125955
                                                         5.108150       1.160468
                                                         2.048398       0.999335
                                                         0.832382       0.756334
                                                         0.352316       0.048604
                                                         0.142977       0.010378
                                                         0.046761      -0.000027

       Atomic covalent radius [Angstrom]:                                  0.730

       Atomic van der Waals radius [Angstrom]:                             1.520

     GTH Potential information for                                    GTH-PBE-q6

       Description:                       Goedecker-Teter-Hutter pseudopotential
                                           Goedecker et al., PRB 54, 1703 (1996)
                                          Hartwigsen et al., PRB 58, 3641 (1998)
                                                      Krack, TCA 114, 145 (2005)

       Gaussian exponent of the core charge distribution:               8.360253
       Electronic configuration (s p d ...):                               2   4

       Parameters of the local part of the GTH pseudopotential:

                          rloc        C1          C2          C3          C4
                        0.244554  -16.667215    2.487311

       Parameters of the non-local part of the GTH pseudopotential:

                   l      r(l)      h(i,j,l)

                   0    0.220956   18.337458
                   1    0.211332


 MOLECULE KIND INFORMATION


 All atoms are their own molecule, skipping detailed information


 TOTAL NUMBERS AND MAXIMUM NUMBERS

  Total number of            - Atomic kinds:                                   2
                             - Atoms:                                          6
                             - Shell sets:                                     6
                             - Shells:                                        36
                             - Primitive Cartesian functions:                 40
                             - Cartesian basis functions:                    118
                             - Spherical basis functions:                    104

  Maximum angular momentum of- Orbital basis functions:                        3
                             - Local part of the GTH pseudopotential:          2
                             - Non-local part of the GTH pseudopotential:      3


 MODULE QUICKSTEP: ATOMIC COORDINATES IN ANGSTROM

   Atom Kind Element         X             Y             Z       Z(eff)     Mass
      1    1 Ti   22      2.326636      2.326636      1.484601  12.0000  47.8670
      2    1 Ti   22      0.000000      0.000000      0.000000  12.0000  47.8670
      3    2 O     8      0.909342      3.743930      1.484601   6.0000  15.9994
      4    2 O     8      3.743930      0.909342      1.484601   6.0000  15.9994
      5    2 O     8      1.417294      1.417294      0.000000   6.0000  15.9994
      6    2 O     8      3.235979      3.235979      0.000000   6.0000  15.9994



 SCF PARAMETERS         Density guess:                                    ATOMIC
                        --------------------------------------------------------
                        max_scf:                                              50
                        max_scf_history:                                       0
                        max_diis:                                              4
                        --------------------------------------------------------
                        eps_scf:                                        1.00E-06
                        eps_scf_history:                                0.00E+00
                        eps_diis:                                       1.00E-01
                        eps_eigval:                                     1.00E-05
                        --------------------------------------------------------
                        level_shift [a.u.]:                             0.000000
                        added MOs                                        50    0
                        --------------------------------------------------------
                        Mixing method:                            BROYDEN_MIXING
                                                charge density mixing in g-space
                        --------------------------------------------------------
                        No outer SCF

 PW_GRID| Information for grid number                                          1
 PW_GRID| Grid distributed over                                     6 processors
 PW_GRID| Real space group dimensions                                     6    1
 PW_GRID| the grid is blocked:                                                NO
 PW_GRID| Cutoff [a.u.]                                                    250.0
 PW_GRID| spherical cutoff:                                                   NO
 PW_GRID|   Bounds   1            -32      31                Points:          64
 PW_GRID|   Bounds   2            -32      31                Points:          64
 PW_GRID|   Bounds   3            -20      19                Points:          40
 PW_GRID| Volume element (a.u.^3)  0.2648E-02     Volume (a.u.^3)       433.8638
 PW_GRID| Grid span                                                    FULLSPACE
 PW_GRID|   Distribution                         Average         Max         Min
 PW_GRID|   G-Vectors                            27306.7       27328       27264
 PW_GRID|   G-Rays                                 426.7         427         426
 PW_GRID|   Real Space Points                    27306.7       28160       25600

 PW_GRID| Information for grid number                                          2
 PW_GRID| Number of the reference grid                                         1
 PW_GRID| Grid distributed over                                     6 processors
 PW_GRID| Real space group dimensions                                     6    1
 PW_GRID| the grid is blocked:                                                NO
 PW_GRID| Cutoff [a.u.]                                                     83.3
 PW_GRID| spherical cutoff:                                                   NO
 PW_GRID|   Bounds   1            -20      19                Points:          40
 PW_GRID|   Bounds   2            -20      19                Points:          40
 PW_GRID|   Bounds   3            -12      11                Points:          24
 PW_GRID| Volume element (a.u.^3)  0.1130E-01     Volume (a.u.^3)       433.8638
 PW_GRID| Grid span                                                    FULLSPACE
 PW_GRID|   Distribution                         Average         Max         Min
 PW_GRID|   G-Vectors                             6400.0        6440        6360
 PW_GRID|   G-Rays                                 160.0         161         159
 PW_GRID|   Real Space Points                     6400.0        6720        5760

 PW_GRID| Information for grid number                                          3
 PW_GRID| Number of the reference grid                                         1
 PW_GRID| Grid distributed over                                     6 processors
 PW_GRID| Real space group dimensions                                     6    1
 PW_GRID| the grid is blocked:                                                NO
 PW_GRID| Cutoff [a.u.]                                                     27.8
 PW_GRID| spherical cutoff:                                                   NO
 PW_GRID|   Bounds   1            -12      11                Points:          24
 PW_GRID|   Bounds   2            -12      11                Points:          24
 PW_GRID|   Bounds   3             -7       7                Points:          15
 PW_GRID| Volume element (a.u.^3)  0.5022E-01     Volume (a.u.^3)       433.8638
 PW_GRID| Grid span                                                    FULLSPACE
 PW_GRID|   Distribution                         Average         Max         Min
 PW_GRID|   G-Vectors                             1440.0        1488        1416
 PW_GRID|   G-Rays                                  60.0          62          59
 PW_GRID|   Real Space Points                     1440.0        1440        1440

 PW_GRID| Information for grid number                                          4
 PW_GRID| Number of the reference grid                                         1
 PW_GRID| Grid distributed over                                     6 processors
 PW_GRID| Real space group dimensions                                     6    1
 PW_GRID| the grid is blocked:                                                NO
 PW_GRID| Cutoff [a.u.]                                                      9.3
 PW_GRID| spherical cutoff:                                                   NO
 PW_GRID|   Bounds   1             -7       7                Points:          15
 PW_GRID|   Bounds   2             -7       7                Points:          15
 PW_GRID|   Bounds   3             -4       3                Points:           8
 PW_GRID| Volume element (a.u.^3)  0.2410         Volume (a.u.^3)       433.8638
 PW_GRID| Grid span                                                    FULLSPACE
 PW_GRID|   Distribution                         Average         Max         Min
 PW_GRID|   G-Vectors                              300.0         330         270
 PW_GRID|   G-Rays                                  20.0          22          18
 PW_GRID|   Real Space Points                      300.0         360         240

 PW_GRID| Information for grid number                                          5
 PW_GRID| Number of the reference grid                                         1
 PW_GRID| Grid distributed over                                     6 processors
 PW_GRID| Real space group dimensions                                     6    1
 PW_GRID| the grid is blocked:                                                NO
 PW_GRID| Cutoff [a.u.]                                                      3.1
 PW_GRID| spherical cutoff:                                                   NO
 PW_GRID|   Bounds   1             -4       3                Points:           8
 PW_GRID|   Bounds   2             -4       3                Points:           8
 PW_GRID|   Bounds   3             -3       2                Points:           6
 PW_GRID| Volume element (a.u.^3)   1.130         Volume (a.u.^3)       433.8638
 PW_GRID| Grid span                                                    FULLSPACE
 PW_GRID|   Distribution                         Average         Max         Min
 PW_GRID|   G-Vectors                               64.0          80          56
 PW_GRID|   G-Rays                                   8.0          10           7
 PW_GRID|   Real Space Points                       64.0          96          48

 PW_GRID| Information for grid number                                          6
 PW_GRID| Number of the reference grid                                         1
 PW_GRID| Grid distributed over                                     6 processors
 PW_GRID| Real space group dimensions                                     6    1
 PW_GRID| the grid is blocked:                                                NO
 PW_GRID| Cutoff [a.u.]                                                      1.0
 PW_GRID| spherical cutoff:                                                   NO
 PW_GRID|   Bounds   1             -3       2                Points:           6
 PW_GRID|   Bounds   2             -3       2                Points:           6
 PW_GRID|   Bounds   3             -2       1                Points:           4
 PW_GRID| Volume element (a.u.^3)   3.013         Volume (a.u.^3)       433.8638
 PW_GRID| Grid span                                                    FULLSPACE
 PW_GRID|   Distribution                         Average         Max         Min
 PW_GRID|   G-Vectors                               24.0          42           6
 PW_GRID|   G-Rays                                   4.0           7           1
 PW_GRID|   Real Space Points                       24.0          24          24

 PW_GRID| Information for grid number                                          7
 PW_GRID| Number of the reference grid                                         1
 PW_GRID| Grid distributed over                                     6 processors
 PW_GRID| Real space group dimensions                                     2    3
 PW_GRID| the grid is blocked:                                                NO
 PW_GRID| Cutoff [a.u.]                                                      0.3
 PW_GRID| spherical cutoff:                                                   NO
 PW_GRID|   Bounds   1             -2       1                Points:           4
 PW_GRID|   Bounds   2             -2       1                Points:           4
 PW_GRID|   Bounds   3             -1       0                Points:           2
 PW_GRID| Volume element (a.u.^3)   13.56         Volume (a.u.^3)       433.8638
 PW_GRID| Grid span                                                    FULLSPACE
 PW_GRID|   Distribution                         Average         Max         Min
 PW_GRID|   G-Vectors                                5.3          12           0
 PW_GRID|   G-Rays                                   1.3           3           0
 PW_GRID|   Real Space Points                        5.3           8           4

 PW_GRID| Information for grid number                                          8
 PW_GRID| Number of the reference grid                                         1
 PW_GRID| Grid distributed over                                     6 processors
 PW_GRID| Real space group dimensions                                     2    3
 PW_GRID| the grid is blocked:                                                NO
 PW_GRID| Cutoff [a.u.]                                                      0.1
 PW_GRID| spherical cutoff:                                                   NO
 PW_GRID|   Bounds   1             -1       0                Points:           2
 PW_GRID|   Bounds   2             -1       0                Points:           2
 PW_GRID|   Bounds   3             -1       0                Points:           2
 PW_GRID| Volume element (a.u.^3)   54.23         Volume (a.u.^3)       433.8638
 PW_GRID| Grid span                                                    FULLSPACE
 PW_GRID|   Distribution                         Average         Max         Min
 PW_GRID|   G-Vectors                                1.3           4           0
 PW_GRID|   G-Rays                                   0.7           2           0
 PW_GRID|   Real Space Points                        1.3           2           0

 PW_GRID| Information for grid number                                          9
 PW_GRID| Number of the reference grid                                         1
 PW_GRID| Grid distributed over                                     6 processors
 PW_GRID| Real space group dimensions                                     2    3
 PW_GRID| the grid is blocked:                                                NO
 PW_GRID| Cutoff [a.u.]                                                      0.0
 PW_GRID| spherical cutoff:                                                   NO
 PW_GRID|   Bounds   1             -1       0                Points:           2
 PW_GRID|   Bounds   2             -1       0                Points:           2
 PW_GRID|   Bounds   3             -1       0                Points:           2
 PW_GRID| Volume element (a.u.^3)   54.23         Volume (a.u.^3)       433.8638
 PW_GRID| Grid span                                                    FULLSPACE
 PW_GRID|   Distribution                         Average         Max         Min
 PW_GRID|   G-Vectors                                1.3           4           0
 PW_GRID|   G-Rays                                   0.7           2           0
 PW_GRID|   Real Space Points                        1.3           2           0

 PW_GRID| Information for grid number                                         10
 PW_GRID| Number of the reference grid                                         1
 PW_GRID| Grid distributed over                                     6 processors
 PW_GRID| Real space group dimensions                                     2    3
 PW_GRID| the grid is blocked:                                                NO
 PW_GRID| Cutoff [a.u.]                                                      0.0
 PW_GRID| spherical cutoff:                                                   NO
 PW_GRID|   Bounds   1             -1       0                Points:           2
 PW_GRID|   Bounds   2             -1       0                Points:           2
 PW_GRID|   Bounds   3             -1       0                Points:           2
 PW_GRID| Volume element (a.u.^3)   54.23         Volume (a.u.^3)       433.8638
 PW_GRID| Grid span                                                    FULLSPACE
 PW_GRID|   Distribution                         Average         Max         Min
 PW_GRID|   G-Vectors                                1.3           4           0
 PW_GRID|   G-Rays                                   0.7           2           0
 PW_GRID|   Real Space Points                        1.3           2           0

 PW_GRID| Information for grid number                                         11
 PW_GRID| Number of the reference grid                                         1
 PW_GRID| Grid distributed over                                     6 processors
 PW_GRID| Real space group dimensions                                     2    3
 PW_GRID| the grid is blocked:                                                NO
 PW_GRID| Cutoff [a.u.]                                                      0.0
 PW_GRID| spherical cutoff:                                                   NO
 PW_GRID|   Bounds   1             -1       0                Points:           2
 PW_GRID|   Bounds   2             -1       0                Points:           2
 PW_GRID|   Bounds   3             -1       0                Points:           2
 PW_GRID| Volume element (a.u.^3)   54.23         Volume (a.u.^3)       433.8638
 PW_GRID| Grid span                                                    FULLSPACE
 PW_GRID|   Distribution                         Average         Max         Min
 PW_GRID|   G-Vectors                                1.3           4           0
 PW_GRID|   G-Rays                                   0.7           2           0
 PW_GRID|   Real Space Points                        1.3           2           0

 PW_GRID| Information for grid number                                         12
 PW_GRID| Number of the reference grid                                         1
 PW_GRID| Grid distributed over                                     6 processors
 PW_GRID| Real space group dimensions                                     2    3
 PW_GRID| the grid is blocked:                                                NO
 PW_GRID| Cutoff [a.u.]                                                      0.0
 PW_GRID| spherical cutoff:                                                   NO
 PW_GRID|   Bounds   1             -1       0                Points:           2
 PW_GRID|   Bounds   2             -1       0                Points:           2
 PW_GRID|   Bounds   3             -1       0                Points:           2
 PW_GRID| Volume element (a.u.^3)   54.23         Volume (a.u.^3)       433.8638
 PW_GRID| Grid span                                                    FULLSPACE
 PW_GRID|   Distribution                         Average         Max         Min
 PW_GRID|   G-Vectors                                1.3           4           0
 PW_GRID|   G-Rays                                   0.7           2           0
 PW_GRID|   Real Space Points                        1.3           2           0

 PW_GRID| Information for grid number                                         13
 PW_GRID| Number of the reference grid                                         1
 PW_GRID| Grid distributed over                                     6 processors
 PW_GRID| Real space group dimensions                                     2    3
 PW_GRID| the grid is blocked:                                                NO
 PW_GRID| Cutoff [a.u.]                                                      0.0
 PW_GRID| spherical cutoff:                                                   NO
 PW_GRID|   Bounds   1             -1       0                Points:           2
 PW_GRID|   Bounds   2             -1       0                Points:           2
 PW_GRID|   Bounds   3             -1       0                Points:           2
 PW_GRID| Volume element (a.u.^3)   54.23         Volume (a.u.^3)       433.8638
 PW_GRID| Grid span                                                    FULLSPACE
 PW_GRID|   Distribution                         Average         Max         Min
 PW_GRID|   G-Vectors                                1.3           4           0
 PW_GRID|   G-Rays                                   0.7           2           0
 PW_GRID|   Real Space Points                        1.3           2           0

 PW_GRID| Information for grid number                                         14
 PW_GRID| Number of the reference grid                                         1
 PW_GRID| Grid distributed over                                     6 processors
 PW_GRID| Real space group dimensions                                     2    3
 PW_GRID| the grid is blocked:                                                NO
 PW_GRID| Cutoff [a.u.]                                                      0.0
 PW_GRID| spherical cutoff:                                                   NO
 PW_GRID|   Bounds   1             -1       0                Points:           2
 PW_GRID|   Bounds   2             -1       0                Points:           2
 PW_GRID|   Bounds   3             -1       0                Points:           2
 PW_GRID| Volume element (a.u.^3)   54.23         Volume (a.u.^3)       433.8638
 PW_GRID| Grid span                                                    FULLSPACE
 PW_GRID|   Distribution                         Average         Max         Min
 PW_GRID|   G-Vectors                                1.3           4           0
 PW_GRID|   G-Rays                                   0.7           2           0
 PW_GRID|   Real Space Points                        1.3           2           0

 PW_GRID| Information for grid number                                         15
 PW_GRID| Number of the reference grid                                         1
 PW_GRID| Grid distributed over                                     6 processors
 PW_GRID| Real space group dimensions                                     2    3
 PW_GRID| the grid is blocked:                                                NO
 PW_GRID| Cutoff [a.u.]                                                      0.0
 PW_GRID| spherical cutoff:                                                   NO
 PW_GRID|   Bounds   1             -1       0                Points:           2
 PW_GRID|   Bounds   2             -1       0                Points:           2
 PW_GRID|   Bounds   3             -1       0                Points:           2
 PW_GRID| Volume element (a.u.^3)   54.23         Volume (a.u.^3)       433.8638
 PW_GRID| Grid span                                                    FULLSPACE
 PW_GRID|   Distribution                         Average         Max         Min
 PW_GRID|   G-Vectors                                1.3           4           0
 PW_GRID|   G-Rays                                   0.7           2           0
 PW_GRID|   Real Space Points                        1.3           2           0

 PW_GRID| Information for grid number                                         16
 PW_GRID| Number of the reference grid                                         1
 PW_GRID| Grid distributed over                                     6 processors
 PW_GRID| Real space group dimensions                                     2    3
 PW_GRID| the grid is blocked:                                                NO
 PW_GRID| Cutoff [a.u.]                                                      0.0
 PW_GRID| spherical cutoff:                                                   NO
 PW_GRID|   Bounds   1             -1       0                Points:           2
 PW_GRID|   Bounds   2             -1       0                Points:           2
 PW_GRID|   Bounds   3             -1       0                Points:           2
 PW_GRID| Volume element (a.u.^3)   54.23         Volume (a.u.^3)       433.8638
 PW_GRID| Grid span                                                    FULLSPACE
 PW_GRID|   Distribution                         Average         Max         Min
 PW_GRID|   G-Vectors                                1.3           4           0
 PW_GRID|   G-Rays                                   0.7           2           0
 PW_GRID|   Real Space Points                        1.3           2           0

 POISSON| Solver                                                        PERIODIC
 POISSON| Periodicity                                                        XYZ

 RS_GRID| Information for grid number                                          1
 RS_GRID|   Bounds   1            -32      31                Points:          64
 RS_GRID|   Bounds   2            -32      31                Points:          64
 RS_GRID|   Bounds   3            -20      19                Points:          40
 RS_GRID| Real space fully replicated
 RS_GRID| Group size                                                           1

 RS_GRID| Information for grid number                                          2
 RS_GRID|   Bounds   1            -20      19                Points:          40
 RS_GRID|   Bounds   2            -20      19                Points:          40
 RS_GRID|   Bounds   3            -12      11                Points:          24
 RS_GRID| Real space fully replicated
 RS_GRID| Group size                                                           1

 RS_GRID| Information for grid number                                          3
 RS_GRID|   Bounds   1            -12      11                Points:          24
 RS_GRID|   Bounds   2            -12      11                Points:          24
 RS_GRID|   Bounds   3             -7       7                Points:          15
 RS_GRID| Real space fully replicated
 RS_GRID| Group size                                                           1

 RS_GRID| Information for grid number                                          4
 RS_GRID|   Bounds   1             -7       7                Points:          15
 RS_GRID|   Bounds   2             -7       7                Points:          15
 RS_GRID|   Bounds   3             -4       3                Points:           8
 RS_GRID| Real space fully replicated
 RS_GRID| Group size                                                           1

 RS_GRID| Information for grid number                                          5
 RS_GRID|   Bounds   1             -4       3                Points:           8
 RS_GRID|   Bounds   2             -4       3                Points:           8
 RS_GRID|   Bounds   3             -3       2                Points:           6
 RS_GRID| Real space fully replicated
 RS_GRID| Group size                                                           1

 RS_GRID| Information for grid number                                          6
 RS_GRID|   Bounds   1             -3       2                Points:           6
 RS_GRID|   Bounds   2             -3       2                Points:           6
 RS_GRID|   Bounds   3             -2       1                Points:           4
 RS_GRID| Real space fully replicated
 RS_GRID| Group size                                                           1

 RS_GRID| Information for grid number                                          7
 RS_GRID|   Bounds   1             -2       1                Points:           4
 RS_GRID|   Bounds   2             -2       1                Points:           4
 RS_GRID|   Bounds   3             -1       0                Points:           2
 RS_GRID| Real space fully replicated
 RS_GRID| Group size                                                           1

 RS_GRID| Information for grid number                                          8
 RS_GRID|   Bounds   1             -1       0                Points:           2
 RS_GRID|   Bounds   2             -1       0                Points:           2
 RS_GRID|   Bounds   3             -1       0                Points:           2
 RS_GRID| Real space fully replicated
 RS_GRID| Group size                                                           1

 RS_GRID| Information for grid number                                          9
 RS_GRID|   Bounds   1             -1       0                Points:           2
 RS_GRID|   Bounds   2             -1       0                Points:           2
 RS_GRID|   Bounds   3             -1       0                Points:           2
 RS_GRID| Real space fully replicated
 RS_GRID| Group size                                                           1

 RS_GRID| Information for grid number                                         10
 RS_GRID|   Bounds   1             -1       0                Points:           2
 RS_GRID|   Bounds   2             -1       0                Points:           2
 RS_GRID|   Bounds   3             -1       0                Points:           2
 RS_GRID| Real space fully replicated
 RS_GRID| Group size                                                           1

 RS_GRID| Information for grid number                                         11
 RS_GRID|   Bounds   1             -1       0                Points:           2
 RS_GRID|   Bounds   2             -1       0                Points:           2
 RS_GRID|   Bounds   3             -1       0                Points:           2
 RS_GRID| Real space fully replicated
 RS_GRID| Group size                                                           1

 RS_GRID| Information for grid number                                         12
 RS_GRID|   Bounds   1             -1       0                Points:           2
 RS_GRID|   Bounds   2             -1       0                Points:           2
 RS_GRID|   Bounds   3             -1       0                Points:           2
 RS_GRID| Real space fully replicated
 RS_GRID| Group size                                                           1

 RS_GRID| Information for grid number                                         13
 RS_GRID|   Bounds   1             -1       0                Points:           2
 RS_GRID|   Bounds   2             -1       0                Points:           2
 RS_GRID|   Bounds   3             -1       0                Points:           2
 RS_GRID| Real space fully replicated
 RS_GRID| Group size                                                           1

 RS_GRID| Information for grid number                                         14
 RS_GRID|   Bounds   1             -1       0                Points:           2
 RS_GRID|   Bounds   2             -1       0                Points:           2
 RS_GRID|   Bounds   3             -1       0                Points:           2
 RS_GRID| Real space fully replicated
 RS_GRID| Group size                                                           1

 RS_GRID| Information for grid number                                         15
 RS_GRID|   Bounds   1             -1       0                Points:           2
 RS_GRID|   Bounds   2             -1       0                Points:           2
 RS_GRID|   Bounds   3             -1       0                Points:           2
 RS_GRID| Real space fully replicated
 RS_GRID| Group size                                                           1

 RS_GRID| Information for grid number                                         16
 RS_GRID|   Bounds   1             -1       0                Points:           2
 RS_GRID|   Bounds   2             -1       0                Points:           2
 RS_GRID|   Bounds   3             -1       0                Points:           2
 RS_GRID| Real space fully replicated
 RS_GRID| Group size                                                           1

 MD_PAR| Molecular dynamics protocol (MD input parameters)
 MD_PAR| Ensemble type                                                       NVT
 MD_PAR| Number of time steps                                                 20
 MD_PAR| Time step [fs]                                                 1.000000
 MD_PAR| Temperature [K]                                              300.000000
 MD_PAR| Temperature tolerance [K]                                      0.000000
 MD_PAR| Print MD information every                                    1 step(s)
 MD_PAR| File type   Print frequency [steps]                          File names
 MD_PAR| Coordinates          1                         Rutile_TiO2_MD-pos-1.xyz
 MD_PAR| Velocities           1                         Rutile_TiO2_MD-vel-1.xyz
 MD_PAR| Energies             1                            Rutile_TiO2_MD-1.ener
 MD_PAR| Dump                 1                         Rutile_TiO2_MD-1.restart

 ROT| Rotational analysis information
 ROT| Principal axes and moments of inertia [a.u.]
 ROT|                           1                   2                   3
 ROT| Eigenvalues      1.16617747171E+06   3.27998871074E+06   3.78748643455E+06
 ROT|      x              0.673449929806      0.707106781187     -0.215557862405
 ROT|      y              0.673449929806     -0.707106781187     -0.215557862405
 ROT|      z              0.304844852490     -0.000000000000      0.952402024310
 ROT| Number of rotovibrational vectors                                        6

 DOF| Calculation of degrees of freedom
 DOF| Number of atoms                                                          6
 DOF| Number of intramolecular constraints                                     0
 DOF| Number of intermolecular constraints                                     0
 DOF| Invariants (translations + rotations)                                    3
 DOF| Degrees of freedom                                                      15

 DOF| Restraints information
 DOF| Number of intramolecular restraints                                      0
 DOF| Number of intermolecular restraints                                      0

 THERMOSTAT| Thermostat information for PARTICLES
 THERMOSTAT| Type of thermostat            Canonical Sampling/Velocity Rescaling
 THERMOSTAT| CSVR time constant [fs]                                   20.000000
 THERMOSTAT| Initial kinetic energy                           0.000000000000E+00
 THERMOSTAT| End of thermostat information for PARTICLES

 MD_VEL| Velocities initialization
 MD_VEL| Initial temperature [K]                                      300.000000
 MD_VEL| COM velocity             0.0000000000    -0.0000000000     0.0000000000

 Extrapolation method: initial_guess

 Atomic guess: The first density matrix is obtained in terms of atomic orbitals
               and electronic configurations assigned to each atomic kind

 Guess for atomic kind: Ti

 Electronic structure
    Total number of core electrons                                         10.00
    Total number of valence electrons                                      12.00
    Total number of electrons                                              22.00
    Multiplicity                                                   not specified
    S   [  2.00  2.00] 2.00  2.00
    P   [  6.00] 6.00
    D      2.00


 *******************************************************************************
                  Iteration          Convergence                     Energy [au]
 *******************************************************************************
                          1         2.59099                     -56.573945749309
                          2        0.737518                     -57.461623245624
                          3        0.123244E-01                 -57.676656834797
                          4        0.338536E-02                 -57.676690535970
                          5        0.252157E-03                 -57.676697146183
                          6        0.162704E-05                 -57.676697160103
                          7        0.846593E-06                 -57.676697160104

 Energy components [Hartree]           Total Energy ::          -57.676697160104
                                        Band Energy ::          -13.440549799540
                                     Kinetic Energy ::           25.008468428381
                                   Potential Energy ::          -82.685165588485
                                      Virial (-V/T) ::            3.306286661467
                                        Core Energy ::          -97.155838374470
                                          XC Energy ::           -6.919409696495
                                     Coulomb Energy ::           46.398550910862
                       Total Pseudopotential Energy ::         -122.259340742080
                       Local Pseudopotential Energy ::         -118.928992669456
                    Nonlocal Pseudopotential Energy ::           -3.330348072625
                                        Confinement ::            0.950339392289

 Orbital energies  State     L     Occupation   Energy[a.u.]          Energy[eV]

                       1     0          2.000      -2.312566          -62.928123
                       2     0          2.000      -0.123060           -3.348633

                       1     1          6.000      -1.385567          -37.703193

                       1     2          2.000      -0.127948           -3.481643


 Total Electron Density at R=0:                                         0.004726

 Guess for atomic kind: O

 Electronic structure
    Total number of core electrons                                          2.00
    Total number of valence electrons                                       6.00
    Total number of electrons                                               8.00
    Multiplicity                                                   not specified
    S   [  2.00] 2.00
    P      4.00


 *******************************************************************************
                  Iteration          Convergence                     Energy [au]
 *******************************************************************************
                          1        0.708315                     -15.576645311500
                          2        0.608879                     -15.587933561584
                          3        0.102828E-01                 -15.656849565404
                          4        0.113889E-02                 -15.656866888140
                          5        0.434197E-03                 -15.656867072159
                          6        0.263771E-03                 -15.656867091904
                          7        0.478536E-06                 -15.656867103452

 Energy components [Hartree]           Total Energy ::          -15.656867103452
                                        Band Energy ::           -3.000198112285
                                     Kinetic Energy ::           11.759971203220
                                   Potential Energy ::          -27.416838306672
                                      Virial (-V/T) ::            2.331369510426
                                        Core Energy ::          -26.140716385623
                                          XC Energy ::           -3.154051012914
                                     Coulomb Energy ::           13.637900295084
                       Total Pseudopotential Energy ::          -37.935781716540
                       Local Pseudopotential Energy ::          -39.218907440693
                    Nonlocal Pseudopotential Energy ::            1.283125724153
                                        Confinement ::            0.350941276976

 Orbital energies  State     L     Occupation   Energy[a.u.]          Energy[eV]

                       1     0          2.000      -0.864471          -23.523463

                       1     1          4.000      -0.317814           -8.648154


 Total Electron Density at R=0:                                         0.000068
 Re-scaling the density matrix to get the right number of electrons
                  # Electrons              Trace(P)               Scaling factor
                           48                52.283                        0.918

 Number of electrons:                                                         48
 Number of occupied orbitals:                                                 24
 Number of molecular orbitals:                                                74

 Number of orbital functions:                                                104
 Number of independent orbital functions:                                    104


 SCF WAVEFUNCTION OPTIMIZATION

  Step     Update method      Time    Convergence         Total energy    Change
  ------------------------------------------------------------------------------
     1 NoMix/Diag. 0.30E+00    0.7     1.88625246      -180.0284481527 -1.80E+02
     2 Broy./Diag. 0.30E+00    1.3     0.68820595      -166.1234715473  1.39E+01
     3 Broy./Diag. 0.30E+00    1.3     0.70717385      -168.6632420745 -2.54E+00
     4 Broy./Diag. 0.30E+00    1.3     0.13361601      -178.1572761850 -9.49E+00
     5 Broy./Diag. 0.30E+00    1.3     0.04121619      -181.7426486827 -3.59E+00
     6 Broy./Diag. 0.30E+00    1.3     0.10932515      -180.9323235772  8.10E-01
     7 Broy./Diag. 0.30E+00    1.3     0.01094976      -180.6025120432  3.30E-01
     8 Broy./Diag. 0.30E+00    1.3     0.02021881      -180.7078280623 -1.05E-01
     9 Broy./Diag. 0.30E+00    1.3     0.00573460      -180.7594592408 -5.16E-02
    10 Broy./Diag. 0.30E+00    1.3     0.00041373      -180.7402840677  1.92E-02
    11 Broy./Diag. 0.30E+00    1.3     0.00018546      -180.7395864447  6.98E-04
    12 Broy./Diag. 0.30E+00    1.3     0.00018271      -180.7411500860 -1.56E-03
    13 Broy./Diag. 0.30E+00    1.3     0.00005419      -180.7415214702 -3.71E-04
    14 Broy./Diag. 0.30E+00    1.3     0.00001814      -180.7413582062  1.63E-04
    15 Broy./Diag. 0.30E+00    1.3     0.00000248      -180.7414021875 -4.40E-05
    16 Broy./Diag. 0.30E+00    1.3     0.00000015      -180.7414000878  2.10E-06

  *** SCF run converged in    16 steps ***


  Electronic density on regular grids:        -47.9999999999        0.0000000001
  Core density on regular grids:               48.0000000000       -0.0000000000
  Total charge density on r-space grids:        0.0000000001
  Total charge density g-space grids:           0.0000000001

  Overlap energy of the core charge distribution:               0.00000000000004
  Self energy of the core charge distribution:               -379.90298629198736
  Core Hamiltonian energy:                                    101.93443823318697
  Hartree energy:                                             126.11705550355431
  Exchange-correlation energy:                                -28.85124306708373
  Dispersion energy:                                           -0.03866446549736

  Total energy:                                              -180.74140008782717

 ENERGY| Total FORCE_EVAL ( QS ) energy [hartree]           -180.741405241546175

 MD_INI| MD initialization
 MD_INI| Potential energy [hartree]                          -0.180741405242E+03
 MD_INI| Kinetic energy [hartree]                             0.712533452240E-02
 MD_INI| Temperature [K]                                              300.000000
 MD_INI| Cell volume [bohr^3]                                 4.338637880748E+02
 MD_INI| Cell volume [ang^3]                                  6.429197941104E+01
 MD_INI| Cell lengths [bohr]      8.79340999E+00  8.79340999E+00  5.61098049E+00
 MD_INI| Cell lengths [ang]       4.65327215E+00  4.65327215E+00  2.96920300E+00
 MD_INI| Cell angles [deg]        9.00000000E+01  9.00000000E+01  9.00000000E+01

 Parameters for the always stable predictor-corrector (ASPC) method:

  ASPC order: 0

  B(1) =   1.000000

 Extrapolation method: ASPC

 Number of electrons:                                                         48
 Number of occupied orbitals:                                                 24
 Number of molecular orbitals:                                                74

 Number of orbital functions:                                                104
 Number of independent orbital functions:                                    104


 SCF WAVEFUNCTION OPTIMIZATION

  Step     Update method      Time    Convergence         Total energy    Change
  ------------------------------------------------------------------------------
     1 Broy./Diag. 0.30E+00    0.7     0.01539321      -180.7453607197 -1.81E+02
     2 Broy./Diag. 0.30E+00    1.3     0.00494724      -180.7319666882  1.34E-02
     3 Broy./Diag. 0.30E+00    1.3     0.00202513      -180.7420474624 -1.01E-02
     4 Broy./Diag. 0.30E+00    1.3     0.00046229      -180.7436252815 -1.58E-03
     5 Broy./Diag. 0.30E+00    1.3     0.00009605      -180.7460413892 -2.42E-03
     6 Broy./Diag. 0.30E+00    1.3     0.00010778      -180.7457080720  3.33E-04
     7 Broy./Diag. 0.30E+00    1.3     0.00002098      -180.7455792688  1.29E-04
     8 Broy./Diag. 0.30E+00    1.3     0.00000968      -180.7455052513  7.40E-05
     9 Broy./Diag. 0.30E+00    1.3     0.00000110      -180.7455038080  1.44E-06
    10 Broy./Diag. 0.30E+00    1.3     0.00000083      -180.7455159109 -1.21E-05

  *** SCF run converged in    10 steps ***


  Electronic density on regular grids:        -47.9999999999        0.0000000001
  Core density on regular grids:               48.0000000000       -0.0000000000
  Total charge density on r-space grids:        0.0000000001
  Total charge density g-space grids:           0.0000000001

  Overlap energy of the core charge distribution:               0.00000000000004
  Self energy of the core charge distribution:               -379.90298629198736
  Core Hamiltonian energy:                                    101.93603261785175
  Hartree energy:                                             126.11256667657088
  Exchange-correlation energy:                                -28.85246808871927
  Dispersion energy:                                           -0.03866082464434

  Total energy:                                              -180.74551591092828

 ENERGY| Total FORCE_EVAL ( QS ) energy [hartree]           -180.745517860675051

 MD_VEL| Centre of mass motion (COM)
 MD_VEL| VCOM [a.u.]              0.0000000583    -0.0000000680    -0.0000000795

 MD| ***************************************************************************
 MD| Step number                                                               1
 MD| Time [fs]                                                          1.000000
 MD| Conserved quantity [hartree]                            -0.180734289310E+03
 MD| ---------------------------------------------------------------------------
 MD|                                          Instantaneous             Averages
 MD| CPU time per MD step [s]                     46.182964            46.182964
 MD| Energy drift per atom [K]          -0.494889977484E+00   0.000000000000E+00
 MD| Potential energy [hartree]         -0.180745517861E+03  -0.180745517861E+03
 MD| Kinetic energy [hartree]            0.106610440872E-01   0.106610440872E-01
 MD| Temperature [K]                             448.864992           448.864992
 MD| ***************************************************************************
 MD| Estimated peak process memory after this step [MiB]                     324

 Parameters for the always stable predictor-corrector (ASPC) method:

  ASPC order: 0

  B(1) =   2.000000
  B(2) =  -1.000000

 Extrapolation method: ASPC

 Number of electrons:                                                         48
 Number of occupied orbitals:                                                 24
 Number of molecular orbitals:                                                74

 Number of orbital functions:                                                104
 Number of independent orbital functions:                                    104


 SCF WAVEFUNCTION OPTIMIZATION

  Step     Update method      Time    Convergence         Total energy    Change
  ------------------------------------------------------------------------------
     1 Broy./Diag. 0.30E+00    0.7     0.01600959      -180.7521244325 -1.81E+02
     2 Broy./Diag. 0.30E+00    1.3     0.00747720      -180.7297551189  2.24E-02
     3 Broy./Diag. 0.30E+00    1.3     0.00286782      -180.7459536037 -1.62E-02
     4 Broy./Diag. 0.30E+00    1.3     0.00054747      -180.7493817059 -3.43E-03
     5 Broy./Diag. 0.30E+00    1.3     0.00011248      -180.7532079575 -3.83E-03
     6 Broy./Diag. 0.30E+00    1.3     0.00009116      -180.7526621776  5.46E-04
     7 Broy./Diag. 0.30E+00    1.3     0.00003032      -180.7523834645  2.79E-04
     8 Broy./Diag. 0.30E+00    1.3     0.00001199      -180.7523152148  6.82E-05
     9 Broy./Diag. 0.30E+00    1.3     0.00000151      -180.7523254836 -1.03E-05
    10 Broy./Diag. 0.30E+00    1.3     0.00000096      -180.7523456175 -2.01E-05

  *** SCF run converged in    10 steps ***


  Electronic density on regular grids:        -47.9999999999        0.0000000001
  Core density on regular grids:               48.0000000000       -0.0000000000
  Total charge density on r-space grids:        0.0000000001
  Total charge density g-space grids:           0.0000000001

  Overlap energy of the core charge distribution:               0.00000000000005
  Self energy of the core charge distribution:               -379.90298629198736
  Core Hamiltonian energy:                                    101.94022506412047
  Hartree energy:                                             126.10395361939091
  Exchange-correlation energy:                                -28.85488380721825
  Dispersion energy:                                           -0.03865420175914

  Total energy:                                              -180.75234561745333

 ENERGY| Total FORCE_EVAL ( QS ) energy [hartree]           -180.752348503262738

 MD_VEL| Centre of mass motion (COM)
 MD_VEL| VCOM [a.u.]              0.0000002086    -0.0000002653    -0.0000003204

 MD| ***************************************************************************
 MD| Step number                                                               2
 MD| Time [fs]                                                          2.000000
 MD| Conserved quantity [hartree]                            -0.180734312523E+03
 MD| ---------------------------------------------------------------------------
 MD|                                          Instantaneous             Averages
 MD| CPU time per MD step [s]                     19.016686            32.599825
 MD| Energy drift per atom [K]          -0.171654764578E+01  -0.858273822892E+00
 MD| Potential energy [hartree]         -0.180752348503E+03  -0.180748933182E+03
 MD| Kinetic energy [hartree]            0.198077637306E-01   0.152344039089E-01
 MD| Temperature [K]                             833.971949           641.418471
 MD| ***************************************************************************
 MD| Estimated peak process memory after this step [MiB]                     324

 Parameters for the always stable predictor-corrector (ASPC) method:

  ASPC order: 1

  B(1) =   2.500000
  B(2) =  -2.000000
  B(3) =   0.500000

 Extrapolation method: ASPC

 Number of electrons:                                                         48
 Number of occupied orbitals:                                                 24
 Number of molecular orbitals:                                                74

 Number of orbital functions:                                                104
 Number of independent orbital functions:                                    104


 SCF WAVEFUNCTION OPTIMIZATION

  Step     Update method      Time    Convergence         Total energy    Change
  ------------------------------------------------------------------------------
     1 Broy./Diag. 0.30E+00    0.7     0.01552193      -180.7609642189 -1.81E+02
     2 Broy./Diag. 0.30E+00    1.3     0.00884015      -180.7319338747  2.90E-02
     3 Broy./Diag. 0.30E+00    1.3     0.00326674      -180.7520994854 -2.02E-02
     4 Broy./Diag. 0.30E+00    1.3     0.00055189      -180.7575374455 -5.44E-03
     5 Broy./Diag. 0.30E+00    1.3     0.00011125      -180.7624780731 -4.94E-03
     6 Broy./Diag. 0.30E+00    1.3     0.00008607      -180.7616819782  7.96E-04
     7 Broy./Diag. 0.30E+00    1.3     0.00002371      -180.7612546055  4.27E-04
     8 Broy./Diag. 0.30E+00    1.3     0.00001305      -180.7612048954  4.97E-05
     9 Broy./Diag. 0.30E+00    1.3     0.00000181      -180.7612294656 -2.46E-05
    10 Broy./Diag. 0.30E+00    1.3     0.00000136      -180.7612564233 -2.70E-05
    11 Broy./Diag. 0.30E+00    1.3     0.00000059      -180.7612635599 -7.14E-06

  *** SCF run converged in    11 steps ***


  Electronic density on regular grids:        -47.9999999998        0.0000000002
  Core density on regular grids:               48.0000000000       -0.0000000000
  Total charge density on r-space grids:        0.0000000002
  Total charge density g-space grids:           0.0000000002

  Overlap energy of the core charge distribution:               0.00000000000007
  Self energy of the core charge distribution:               -379.90298629198736
  Core Hamiltonian energy:                                    101.94838028087787
  Hartree energy:                                             126.09070613377574
  Exchange-correlation energy:                                -28.85871897415015
  Dispersion energy:                                           -0.03864470836675

  Total energy:                                              -180.76126355985059

 ENERGY| Total FORCE_EVAL ( QS ) energy [hartree]           -180.761258505084101

 MD_VEL| Centre of mass motion (COM)
 MD_VEL| VCOM [a.u.]              0.0000002788    -0.0000004569    -0.0000006566

 MD| ***************************************************************************
 MD| Step number                                                               3
 MD| Time [fs]                                                          3.000000
 MD| Conserved quantity [hartree]                            -0.180734358820E+03
 MD| ---------------------------------------------------------------------------
 MD|                                          Instantaneous             Averages
 MD| CPU time per MD step [s]                     20.355870            28.518507
 MD| Energy drift per atom [K]          -0.415314286803E+01  -0.195656350460E+01
 MD| Potential energy [hartree]         -0.180761258505E+03  -0.180753041623E+03
 MD| Kinetic energy [hartree]            0.280000315069E-01   0.194896131083E-01
 MD| Temperature [K]                            1178.893345           820.576762
 MD| ***************************************************************************
 MD| Estimated peak process memory after this step [MiB]                     326

 Parameters for the always stable predictor-corrector (ASPC) method:

  ASPC order: 2

  B(1) =   2.800000
  B(2) =  -2.800000
  B(3) =   1.200000
  B(4) =  -0.200000

 Extrapolation method: ASPC

 Number of electrons:                                                         48
 Number of occupied orbitals:                                                 24
 Number of molecular orbitals:                                                74

 Number of orbital functions:                                                104
 Number of independent orbital functions:                                    104


 SCF WAVEFUNCTION OPTIMIZATION

  Step     Update method      Time    Convergence         Total energy    Change
  ------------------------------------------------------------------------------
     1 Broy./Diag. 0.30E+00    0.7     0.01476508      -180.7710668794 -1.81E+02
     2 Broy./Diag. 0.30E+00    1.3     0.00934402      -180.7371695568  3.39E-02
     3 Broy./Diag. 0.30E+00    1.3     0.00336159      -180.7597463506 -2.26E-02
     4 Broy./Diag. 0.30E+00    1.3     0.00053884      -180.7671556363 -7.41E-03
     5 Broy./Diag. 0.30E+00    1.3     0.00013658      -180.7729929890 -5.84E-03
     6 Broy./Diag. 0.30E+00    1.3     0.00007640      -180.7719677103  1.03E-03
     7 Broy./Diag. 0.30E+00    1.3     0.00002372      -180.7714046449  5.63E-04
     8 Broy./Diag. 0.30E+00    1.3     0.00001390      -180.7713598625  4.48E-05
     9 Broy./Diag. 0.30E+00    1.3     0.00000204      -180.7713957084 -3.58E-05
    10 Broy./Diag. 0.30E+00    1.3     0.00000149      -180.7714292682 -3.36E-05
    11 Broy./Diag. 0.30E+00    1.3     0.00000035      -180.7714399676 -1.07E-05

  *** SCF run converged in    11 steps ***


  Electronic density on regular grids:        -47.9999999998        0.0000000002
  Core density on regular grids:               48.0000000000       -0.0000000000
  Total charge density on r-space grids:        0.0000000002
  Total charge density g-space grids:           0.0000000002

  Overlap energy of the core charge distribution:               0.00000000000011
  Self energy of the core charge distribution:               -379.90298629198736
  Core Hamiltonian energy:                                    101.96204409023824
  Hartree energy:                                             126.07222018132609
  Exchange-correlation energy:                                -28.86408538797462
  Dispersion energy:                                           -0.03863255922484

  Total energy:                                              -180.77143996762240

 ENERGY| Total FORCE_EVAL ( QS ) energy [hartree]           -180.771433299182945

 MD_VEL| Centre of mass motion (COM)
 MD_VEL| VCOM [a.u.]              0.0000000544    -0.0000004050    -0.0000010323

 MD| ***************************************************************************
 MD| Step number                                                               4
 MD| Time [fs]                                                          4.000000
 MD| Conserved quantity [hartree]                            -0.180734417877E+03
 MD| ---------------------------------------------------------------------------
 MD|                                          Instantaneous             Averages
 MD| CPU time per MD step [s]                     20.374560            26.482520
 MD| Energy drift per atom [K]          -0.726122206062E+01  -0.328272814361E+01
 MD| Potential energy [hartree]         -0.180771433299E+03  -0.180757639542E+03
 MD| Kinetic energy [hartree]            0.370642185498E-01   0.238832644686E-01
 MD| Temperature [K]                            1560.525408          1005.563924
 MD| ***************************************************************************
 MD| Estimated peak process memory after this step [MiB]                     326

 Parameters for the always stable predictor-corrector (ASPC) method:

  ASPC order: 3

  B(1) =   3.000000
  B(2) =  -3.428571
  B(3) =   1.928571
  B(4) =  -0.571429
  B(5) =   0.071429

 Extrapolation method: ASPC

 Number of electrons:                                                         48
 Number of occupied orbitals:                                                 24
 Number of molecular orbitals:                                                74

 Number of orbital functions:                                                104
 Number of independent orbital functions:                                    104


 SCF WAVEFUNCTION OPTIMIZATION

  Step     Update method      Time    Convergence         Total energy    Change
  ------------------------------------------------------------------------------
     1 Broy./Diag. 0.30E+00    0.7     0.01583525      -180.7816275739 -1.81E+02
     2 Broy./Diag. 0.30E+00    1.3     0.00942074      -180.7439011691  3.77E-02
     3 Broy./Diag. 0.30E+00    1.3     0.00330314      -180.7680879638 -2.42E-02
     4 Broy./Diag. 0.30E+00    1.3     0.00053088      -180.7773467584 -9.26E-03
     5 Broy./Diag. 0.30E+00    1.3     0.00015423      -180.7839430259 -6.60E-03
     6 Broy./Diag. 0.30E+00    1.3     0.00008355      -180.7827043529  1.24E-03
     7 Broy./Diag. 0.30E+00    1.3     0.00002248      -180.7820204738  6.84E-04
     8 Broy./Diag. 0.30E+00    1.3     0.00001422      -180.7819804427  4.00E-05
     9 Broy./Diag. 0.30E+00    1.3     0.00000251      -180.7820274918 -4.70E-05
    10 Broy./Diag. 0.30E+00    1.3     0.00000144      -180.7820674756 -4.00E-05
    11 Broy./Diag. 0.30E+00    1.3     0.00000031      -180.7820798995 -1.24E-05

  *** SCF run converged in    11 steps ***


  Electronic density on regular grids:        -47.9999999999        0.0000000001
  Core density on regular grids:               48.0000000000       -0.0000000000
  Total charge density on r-space grids:        0.0000000001
  Total charge density g-space grids:           0.0000000001

  Overlap energy of the core charge distribution:               0.00000000000017
  Self energy of the core charge distribution:               -379.90298629198736
  Core Hamiltonian energy:                                    101.98327811390826
  Hartree energy:                                             126.04741245885226
  Exchange-correlation energy:                                -28.87116612795473
  Dispersion energy:                                           -0.03861805227250

  Total energy:                                              -180.78207989945395

 ENERGY| Total FORCE_EVAL ( QS ) energy [hartree]           -180.782071580939117

 MD_VEL| Centre of mass motion (COM)
 MD_VEL| VCOM [a.u.]             -0.0000003650     0.0000000209    -0.0000013515

 MD| ***************************************************************************
 MD| Step number                                                               5
 MD| Time [fs]                                                          5.000000
 MD| Conserved quantity [hartree]                            -0.180734454031E+03
 MD| ---------------------------------------------------------------------------
 MD|                                          Instantaneous             Averages
 MD| CPU time per MD step [s]                     20.331741            25.252364
 MD| Energy drift per atom [K]          -0.916398835503E+01  -0.445898018589E+01
 MD| Potential energy [hartree]         -0.180782071581E+03  -0.180762525950E+03
 MD| Kinetic energy [hartree]            0.476273901567E-01   0.286320896063E-01
 MD| Temperature [K]                            2005.269648          1205.505069
 MD| ***************************************************************************
 MD| Estimated peak process memory after this step [MiB]                     327

 Parameters for the always stable predictor-corrector (ASPC) method:

  ASPC order: 3

  B(1) =   3.000000
  B(2) =  -3.428571
  B(3) =   1.928571
  B(4) =  -0.571429
  B(5) =   0.071429

 Extrapolation method: ASPC

 Number of electrons:                                                         48
 Number of occupied orbitals:                                                 24
 Number of molecular orbitals:                                                74

 Number of orbital functions:                                                104
 Number of independent orbital functions:                                    104


 SCF WAVEFUNCTION OPTIMIZATION

  Step     Update method      Time    Convergence         Total energy    Change
  ------------------------------------------------------------------------------
     1 Broy./Diag. 0.30E+00    0.7     0.01659875      -180.7917718876 -1.81E+02
     2 Broy./Diag. 0.30E+00    1.3     0.00900279      -180.7516625845  4.01E-02
     3 Broy./Diag. 0.30E+00    1.3     0.00307207      -180.7764367554 -2.48E-02
     4 Broy./Diag. 0.30E+00    1.3     0.00051504      -180.7872489896 -1.08E-02
     5 Broy./Diag. 0.30E+00    1.3     0.00015463      -180.7943692896 -7.12E-03
     6 Broy./Diag. 0.30E+00    1.3     0.00008033      -180.7929613462  1.41E-03
     7 Broy./Diag. 0.30E+00    1.3     0.00002465      -180.7921943484  7.67E-04
     8 Broy./Diag. 0.30E+00    1.3     0.00001379      -180.7921604974  3.39E-05
     9 Broy./Diag. 0.30E+00    1.3     0.00000297      -180.7922155111 -5.50E-05
    10 Broy./Diag. 0.30E+00    1.3     0.00000154      -180.7922589836 -4.35E-05
    11 Broy./Diag. 0.30E+00    1.3     0.00000035      -180.7922719488 -1.30E-05

  *** SCF run converged in    11 steps ***


  Electronic density on regular grids:        -48.0000000001       -0.0000000001
  Core density on regular grids:               48.0000000000       -0.0000000000
  Total charge density on r-space grids:       -0.0000000001
  Total charge density g-space grids:          -0.0000000001

  Overlap energy of the core charge distribution:               0.00000000000030
  Self energy of the core charge distribution:               -379.90298629198736
  Core Hamiltonian energy:                                    102.01396411682578
  Hartree energy:                                             126.01555015027327
  Exchange-correlation energy:                                -28.88019771689634
  Dispersion energy:                                           -0.03860220702881

  Total energy:                                              -180.79227194881318

 ENERGY| Total FORCE_EVAL ( QS ) energy [hartree]           -180.792263024319737

 MD_VEL| Centre of mass motion (COM)
 MD_VEL| VCOM [a.u.]             -0.0000004259     0.0000005365    -0.0000014600

 MD| ***************************************************************************
 MD| Step number                                                               6
 MD| Time [fs]                                                          6.000000
 MD| Conserved quantity [hartree]                            -0.180734483595E+03
 MD| ---------------------------------------------------------------------------
 MD|                                          Instantaneous             Averages
 MD| CPU time per MD step [s]                     20.315831            24.429609
 MD| Energy drift per atom [K]          -0.107199341410E+02  -0.550247251175E+01
 MD| Potential energy [hartree]         -0.180792263024E+03  -0.180767482129E+03
 MD| Kinetic energy [hartree]            0.538546650798E-01   0.328358521852E-01
 MD| Temperature [K]                            2267.458387          1382.497288
 MD| ***************************************************************************
 MD| Estimated peak process memory after this step [MiB]                     327

 Parameters for the always stable predictor-corrector (ASPC) method:

  ASPC order: 3

  B(1) =   3.000000
  B(2) =  -3.428571
  B(3) =   1.928571
  B(4) =  -0.571429
  B(5) =   0.071429

 Extrapolation method: ASPC

 Number of electrons:                                                         48
 Number of occupied orbitals:                                                 24
 Number of molecular orbitals:                                                74

 Number of orbital functions:                                                104
 Number of independent orbital functions:                                    104


 SCF WAVEFUNCTION OPTIMIZATION

  Step     Update method      Time    Convergence         Total energy    Change
  ------------------------------------------------------------------------------
     1 Broy./Diag. 0.30E+00    0.7     0.01781462      -180.8011993823 -1.81E+02
     2 Broy./Diag. 0.30E+00    1.3     0.00880697      -180.7577846107  4.34E-02
     3 Broy./Diag. 0.30E+00    1.3     0.00290953      -180.7837364309 -2.60E-02
     4 Broy./Diag. 0.30E+00    1.3     0.00051717      -180.7963281545 -1.26E-02
     5 Broy./Diag. 0.30E+00    1.3     0.00017955      -180.8041508589 -7.82E-03
     6 Broy./Diag. 0.30E+00    1.3     0.00007739      -180.8025426070  1.61E-03
     7 Broy./Diag. 0.30E+00    1.3     0.00002662      -180.8016816705  8.61E-04
     8 Broy./Diag. 0.30E+00    1.3     0.00001358      -180.8016452690  3.64E-05
     9 Broy./Diag. 0.30E+00    1.3     0.00000312      -180.8017064564 -6.12E-05
    10 Broy./Diag. 0.30E+00    1.3     0.00000167      -180.8017528075 -4.64E-05
    11 Broy./Diag. 0.30E+00    1.3     0.00000042      -180.8017663301 -1.35E-05

  *** SCF run converged in    11 steps ***


  Electronic density on regular grids:        -48.0000000002       -0.0000000002
  Core density on regular grids:               48.0000000000       -0.0000000000
  Total charge density on r-space grids:       -0.0000000002
  Total charge density g-space grids:          -0.0000000002

  Overlap energy of the core charge distribution:               0.00000000000056
  Self energy of the core charge distribution:               -379.90298629198736
  Core Hamiltonian energy:                                    102.05716976299263
  Hartree energy:                                             125.97447911058075
  Exchange-correlation energy:                                -28.89184360048194
  Dispersion energy:                                           -0.03858531121430

  Total energy:                                              -180.80176633010967

 ENERGY| Total FORCE_EVAL ( QS ) energy [hartree]           -180.801757136255759

 MD_VEL| Centre of mass motion (COM)
 MD_VEL| VCOM [a.u.]              0.0000000281     0.0000005947    -0.0000014622

 MD| ***************************************************************************
 MD| Step number                                                               7
 MD| Time [fs]                                                          7.000000
 MD| Conserved quantity [hartree]                            -0.180734549237E+03
 MD| ---------------------------------------------------------------------------
 MD|                                          Instantaneous             Averages
 MD| CPU time per MD step [s]                     20.292216            23.838553
 MD| Energy drift per atom [K]          -0.141746177155E+02  -0.674135039801E+01
 MD| Potential energy [hartree]         -0.180801757136E+03  -0.180772378559E+03
 MD| Kinetic energy [hartree]            0.603011075966E-01   0.367594601011E-01
 MD| Temperature [K]                            2538.874803          1547.694076
 MD| ***************************************************************************
 MD| Estimated peak process memory after this step [MiB]                     327

 Parameters for the always stable predictor-corrector (ASPC) method:

  ASPC order: 3

  B(1) =   3.000000
  B(2) =  -3.428571
  B(3) =   1.928571
  B(4) =  -0.571429
  B(5) =   0.071429

 Extrapolation method: ASPC

 Number of electrons:                                                         48
 Number of occupied orbitals:                                                 24
 Number of molecular orbitals:                                                74

 Number of orbital functions:                                                104
 Number of independent orbital functions:                                    104


 SCF WAVEFUNCTION OPTIMIZATION

  Step     Update method      Time    Convergence         Total energy    Change
  ------------------------------------------------------------------------------
     1 Broy./Diag. 0.30E+00    0.7     0.01911409      -180.8091432793 -1.81E+02
     2 Broy./Diag. 0.30E+00    1.3     0.00884700      -180.7625133623  4.66E-02
     3 Broy./Diag. 0.30E+00    1.3     0.00281248      -180.7897556646 -2.72E-02
     4 Broy./Diag. 0.30E+00    1.3     0.00053153      -180.8039407838 -1.42E-02
     5 Broy./Diag. 0.30E+00    1.3     0.00020226      -180.8124732843 -8.53E-03
     6 Broy./Diag. 0.30E+00    1.3     0.00008088      -180.8106731696  1.80E-03
     7 Broy./Diag. 0.30E+00    1.3     0.00002812      -180.8097087947  9.64E-04
     8 Broy./Diag. 0.30E+00    1.3     0.00001341      -180.8096532333  5.56E-05
     9 Broy./Diag. 0.30E+00    1.3     0.00000300      -180.8097184116 -6.52E-05
    10 Broy./Diag. 0.30E+00    1.3     0.00000163      -180.8097651514 -4.67E-05
    11 Broy./Diag. 0.30E+00    1.3     0.00000053      -180.8097788884 -1.37E-05

  *** SCF run converged in    11 steps ***


  Electronic density on regular grids:        -48.0000000001       -0.0000000001
  Core density on regular grids:               48.0000000000       -0.0000000000
  Total charge density on r-space grids:       -0.0000000001
  Total charge density g-space grids:          -0.0000000001

  Overlap energy of the core charge distribution:               0.00000000000110
  Self energy of the core charge distribution:               -379.90298629198736
  Core Hamiltonian energy:                                    102.11469638447198
  Hartree energy:                                             125.92322061691330
  Exchange-correlation energy:                                -28.90614166612228
  Dispersion energy:                                           -0.03856793169065

  Total energy:                                              -180.80977888841397

 ENERGY| Total FORCE_EVAL ( QS ) energy [hartree]           -180.809770309205135

 MD_VEL| Centre of mass motion (COM)
 MD_VEL| VCOM [a.u.]              0.0000002995     0.0000000828    -0.0000014473

 MD| ***************************************************************************
 MD| Step number                                                               8
 MD| Time [fs]                                                          8.000000
 MD| Conserved quantity [hartree]                            -0.180734625170E+03
 MD| ---------------------------------------------------------------------------
 MD|                                          Instantaneous             Averages
 MD| CPU time per MD step [s]                     20.305595            23.396933
 MD| Energy drift per atom [K]          -0.181708699641E+02  -0.817004034376E+01
 MD| Potential energy [hartree]         -0.180809770309E+03  -0.180777052527E+03
 MD| Kinetic energy [hartree]            0.674183486914E-01   0.405918211749E-01
 MD| Temperature [K]                            2838.534043          1709.049072
 MD| ***************************************************************************
 MD| Estimated peak process memory after this step [MiB]                     327

 Parameters for the always stable predictor-corrector (ASPC) method:

  ASPC order: 3

  B(1) =   3.000000
  B(2) =  -3.428571
  B(3) =   1.928571
  B(4) =  -0.571429
  B(5) =   0.071429

 Extrapolation method: ASPC

 Number of electrons:                                                         48
 Number of occupied orbitals:                                                 24
 Number of molecular orbitals:                                                74

 Number of orbital functions:                                                104
 Number of independent orbital functions:                                    104


 SCF WAVEFUNCTION OPTIMIZATION

  Step     Update method      Time    Convergence         Total energy    Change
  ------------------------------------------------------------------------------
     1 Broy./Diag. 0.30E+00    0.7     0.02037355      -180.8148098567 -1.81E+02
     2 Broy./Diag. 0.30E+00    1.3     0.00911176      -180.7646447199  5.02E-02
     3 Broy./Diag. 0.30E+00    1.3     0.00278065      -180.7934510200 -2.88E-02
     4 Broy./Diag. 0.30E+00    1.3     0.00055087      -180.8092012723 -1.58E-02
     5 Broy./Diag. 0.30E+00    1.3     0.00022518      -180.8185575625 -9.36E-03
     6 Broy./Diag. 0.30E+00    1.3     0.00008680      -180.8165985444  1.96E-03
     7 Broy./Diag. 0.30E+00    1.3     0.00002967      -180.8154970842  1.10E-03
     8 Broy./Diag. 0.30E+00    1.3     0.00001301      -180.8153921879  1.05E-04
     9 Broy./Diag. 0.30E+00    1.3     0.00000262      -180.8154601650 -6.80E-05
    10 Broy./Diag. 0.30E+00    1.3     0.00000147      -180.8155054301 -4.53E-05
    11 Broy./Diag. 0.30E+00    1.3     0.00000068      -180.8155182934 -1.29E-05

  *** SCF run converged in    11 steps ***


  Electronic density on regular grids:        -48.0000000003       -0.0000000003
  Core density on regular grids:               48.0000000000       -0.0000000000
  Total charge density on r-space grids:       -0.0000000003
  Total charge density g-space grids:          -0.0000000003

  Overlap energy of the core charge distribution:               0.00000000000222
  Self energy of the core charge distribution:               -379.90298629198736
  Core Hamiltonian energy:                                    102.18799424110577
  Hartree energy:                                             125.86101100667976
  Exchange-correlation energy:                                -28.92298668346684
  Dispersion energy:                                           -0.03855056577421

  Total energy:                                              -180.81551829344065

 ENERGY| Total FORCE_EVAL ( QS ) energy [hartree]           -180.815510991596852

 MD_VEL| Centre of mass motion (COM)
 MD_VEL| VCOM [a.u.]             -0.0000000013    -0.0000004580    -0.0000014452

 MD| ***************************************************************************
 MD| Step number                                                               9
 MD| Time [fs]                                                          9.000000
 MD| Conserved quantity [hartree]                            -0.180734641975E+03
 MD| ---------------------------------------------------------------------------
 MD|                                          Instantaneous             Averages
 MD| CPU time per MD step [s]                     20.301320            23.052976
 MD| Energy drift per atom [K]          -0.190553235513E+02  -0.937951625571E+01
 MD| Potential energy [hartree]         -0.180815510992E+03  -0.180781325690E+03
 MD| Kinetic energy [hartree]            0.728115519157E-01   0.441717912572E-01
 MD| Temperature [K]                            3065.605623          1859.777578
 MD| ***************************************************************************
 MD| Estimated peak process memory after this step [MiB]                     327

 Parameters for the always stable predictor-corrector (ASPC) method:

  ASPC order: 3

  B(1) =   3.000000
  B(2) =  -3.428571
  B(3) =   1.928571
  B(4) =  -0.571429
  B(5) =   0.071429

 Extrapolation method: ASPC

 Number of electrons:                                                         48
 Number of occupied orbitals:                                                 24
 Number of molecular orbitals:                                                74

 Number of orbital functions:                                                104
 Number of independent orbital functions:                                    104


 SCF WAVEFUNCTION OPTIMIZATION

  Step     Update method      Time    Convergence         Total energy    Change
  ------------------------------------------------------------------------------
     1 Broy./Diag. 0.30E+00    0.7     0.02186234      -180.8179540079 -1.81E+02
     2 Broy./Diag. 0.30E+00    1.3     0.00967237      -180.7626743563  5.53E-02
     3 Broy./Diag. 0.30E+00    1.3     0.00284332      -180.7939495571 -3.13E-02
     4 Broy./Diag. 0.30E+00    1.3     0.00058491      -180.8117211806 -1.78E-02
     5 Broy./Diag. 0.30E+00    1.3     0.00025464      -180.8222941361 -1.06E-02
     6 Broy./Diag. 0.30E+00    1.3     0.00009506      -180.8201445850  2.15E-03
     7 Broy./Diag. 0.30E+00    1.3     0.00003112      -180.8188251563  1.32E-03
     8 Broy./Diag. 0.30E+00    1.3     0.00001284      -180.8186418433  1.83E-04
     9 Broy./Diag. 0.30E+00    1.3     0.00000371      -180.8187070418 -6.52E-05
    10 Broy./Diag. 0.30E+00    1.3     0.00000121      -180.8187559429 -4.89E-05
    11 Broy./Diag. 0.30E+00    1.3     0.00000094      -180.8187685708 -1.26E-05

  *** SCF run converged in    11 steps ***


  Electronic density on regular grids:        -48.0000000004       -0.0000000004
  Core density on regular grids:               48.0000000000       -0.0000000000
  Total charge density on r-space grids:       -0.0000000004
  Total charge density g-space grids:          -0.0000000004

  Overlap energy of the core charge distribution:               0.00000000000472
  Self energy of the core charge distribution:               -379.90298629198736
  Core Hamiltonian energy:                                    102.28093662923541
  Hartree energy:                                             125.78502263245230
  Exchange-correlation energy:                                -28.94320823604242
  Dispersion energy:                                           -0.03853330445591

  Total energy:                                              -180.81876857079328

 ENERGY| Total FORCE_EVAL ( QS ) energy [hartree]           -180.818761587726613

 MD_VEL| Centre of mass motion (COM)
 MD_VEL| VCOM [a.u.]             -0.0000001417    -0.0000005111    -0.0000014973

 MD| ***************************************************************************
 MD| Step number                                                              10
 MD| Time [fs]                                                         10.000000
 MD| Conserved quantity [hartree]                            -0.180734658224E+03
 MD| ---------------------------------------------------------------------------
 MD|                                          Instantaneous             Averages
 MD| CPU time per MD step [s]                     20.300830            22.777761
 MD| Energy drift per atom [K]          -0.199104679222E+02  -0.104326114224E+02
 MD| Potential energy [hartree]         -0.180818761588E+03  -0.180785069280E+03
 MD| Kinetic energy [hartree]            0.777168227625E-01   0.475262944077E-01
 MD| Temperature [K]                            3272.133646          2001.013184
 MD| ***************************************************************************
 MD| Estimated peak process memory after this step [MiB]                     327

 Parameters for the always stable predictor-corrector (ASPC) method:

  ASPC order: 3

  B(1) =   3.000000
  B(2) =  -3.428571
  B(3) =   1.928571
  B(4) =  -0.571429
  B(5) =   0.071429

 Extrapolation method: ASPC

 Number of electrons:                                                         48
 Number of occupied orbitals:                                                 24
 Number of molecular orbitals:                                                74

 Number of orbital functions:                                                104
 Number of independent orbital functions:                                    104


 SCF WAVEFUNCTION OPTIMIZATION

  Step     Update method      Time    Convergence         Total energy    Change
  ------------------------------------------------------------------------------
     1 Broy./Diag. 0.30E+00    0.7     0.02316555      -180.8181461203 -1.81E+02
     2 Broy./Diag. 0.30E+00    1.3     0.01042518      -180.7573252713  6.08E-02
     3 Broy./Diag. 0.30E+00    1.3     0.00296695      -180.7913636094 -3.40E-02
     4 Broy./Diag. 0.30E+00    1.3     0.00062164      -180.8112349735 -1.99E-02
     5 Broy./Diag. 0.30E+00    1.3     0.00028115      -180.8232405501 -1.20E-02
     6 Broy./Diag. 0.30E+00    1.3     0.00009567      -180.8208542880  2.39E-03
     7 Broy./Diag. 0.30E+00    1.3     0.00003141      -180.8192349614  1.62E-03
     8 Broy./Diag. 0.30E+00    1.3     0.00001290      -180.8189641125  2.71E-04
     9 Broy./Diag. 0.30E+00    1.3     0.00000429      -180.8190135724 -4.95E-05
    10 Broy./Diag. 0.30E+00    1.3     0.00000176      -180.8190647166 -5.11E-05
    11 Broy./Diag. 0.30E+00    1.3     0.00000070      -180.8190855257 -2.08E-05

  *** SCF run converged in    11 steps ***


  Electronic density on regular grids:        -48.0000000002       -0.0000000002
  Core density on regular grids:               48.0000000000       -0.0000000000
  Total charge density on r-space grids:       -0.0000000002
  Total charge density g-space grids:          -0.0000000002

  Overlap energy of the core charge distribution:               0.00000000001042
  Self energy of the core charge distribution:               -379.90298629198736
  Core Hamiltonian energy:                                    102.39593687700223
  Hartree energy:                                             125.69373774697776
  Exchange-correlation energy:                                -28.96725750916109
  Dispersion energy:                                           -0.03851634854049

  Total energy:                                              -180.81908552569857

 ENERGY| Total FORCE_EVAL ( QS ) energy [hartree]           -180.819080004741977

 MD_VEL| Centre of mass motion (COM)
 MD_VEL| VCOM [a.u.]              0.0000001226    -0.0000001962    -0.0000014551

 MD| ***************************************************************************
 MD| Step number                                                              11
 MD| Time [fs]                                                         11.000000
 MD| Conserved quantity [hartree]                            -0.180734731096E+03
 MD| ---------------------------------------------------------------------------
 MD|                                          Instantaneous             Averages
 MD| CPU time per MD step [s]                     20.308799            22.553310
 MD| Energy drift per atom [K]          -0.237456897990E+02  -0.116428912748E+02
 MD| Potential energy [hartree]         -0.180819080005E+03  -0.180788161164E+03
 MD| Kinetic energy [hartree]            0.738747564187E-01   0.499216091360E-01
 MD| Temperature [K]                            3110.370026          2101.863806
 MD| ***************************************************************************
 MD| Estimated peak process memory after this step [MiB]                     327

 Parameters for the always stable predictor-corrector (ASPC) method:

  ASPC order: 3

  B(1) =   3.000000
  B(2) =  -3.428571
  B(3) =   1.928571
  B(4) =  -0.571429
  B(5) =   0.071429

 Extrapolation method: ASPC

 Number of electrons:                                                         48
 Number of occupied orbitals:                                                 24
 Number of molecular orbitals:                                                74

 Number of orbital functions:                                                104
 Number of independent orbital functions:                                    104


 SCF WAVEFUNCTION OPTIMIZATION

  Step     Update method      Time    Convergence         Total energy    Change
  ------------------------------------------------------------------------------
     1 Broy./Diag. 0.30E+00    0.7     0.02215870      -180.8151051619 -1.81E+02
     2 Broy./Diag. 0.30E+00    1.3     0.01032503      -180.7528031627  6.23E-02
     3 Broy./Diag. 0.30E+00    1.3     0.00286492      -180.7870794070 -3.43E-02
     4 Broy./Diag. 0.30E+00    1.3     0.00059695      -180.8077837965 -2.07E-02
     5 Broy./Diag. 0.30E+00    1.3     0.00026904      -180.8204639134 -1.27E-02
     6 Broy./Diag. 0.30E+00    1.3     0.00009664      -180.8180350212  2.43E-03
     7 Broy./Diag. 0.30E+00    1.3     0.00002876      -180.8162297929  1.81E-03
     8 Broy./Diag. 0.30E+00    1.3     0.00001205      -180.8159165699  3.13E-04
     9 Broy./Diag. 0.30E+00    1.3     0.00000419      -180.8159437036 -2.71E-05
    10 Broy./Diag. 0.30E+00    1.3     0.00000164      -180.8159918257 -4.81E-05
    11 Broy./Diag. 0.30E+00    1.3     0.00000069      -180.8160159697 -2.41E-05

  *** SCF run converged in    11 steps ***


  Electronic density on regular grids:        -48.0000000002       -0.0000000002
  Core density on regular grids:               48.0000000000       -0.0000000000
  Total charge density on r-space grids:       -0.0000000002
  Total charge density g-space grids:          -0.0000000002

  Overlap energy of the core charge distribution:               0.00000000002216
  Self energy of the core charge distribution:               -379.90298629198736
  Core Hamiltonian energy:                                    102.52117405898376
  Hartree energy:                                             125.59656281738782
  Exchange-correlation energy:                                -28.99226534667899
  Dispersion energy:                                           -0.03850120742989

  Total energy:                                              -180.81601596970245

 ENERGY| Total FORCE_EVAL ( QS ) energy [hartree]           -180.816011681220431

 MD_VEL| Centre of mass motion (COM)
 MD_VEL| VCOM [a.u.]              0.0000000494     0.0000000848    -0.0000011288

 MD| ***************************************************************************
 MD| Step number                                                              12
 MD| Time [fs]                                                         12.000000
 MD| Conserved quantity [hartree]                            -0.180734725696E+03
 MD| ---------------------------------------------------------------------------
 MD|                                          Instantaneous             Averages
 MD| CPU time per MD step [s]                     20.325491            22.367659
 MD| Energy drift per atom [K]          -0.234614655646E+02  -0.126277724656E+02
 MD| Potential energy [hartree]         -0.180816011681E+03  -0.180790482040E+03
 MD| Kinetic energy [hartree]            0.673605656333E-01   0.513748555108E-01
 MD| Temperature [K]                            2836.101186          2163.050255
 MD| ***************************************************************************
 MD| Estimated peak process memory after this step [MiB]                     327

 Parameters for the always stable predictor-corrector (ASPC) method:

  ASPC order: 3

  B(1) =   3.000000
  B(2) =  -3.428571
  B(3) =   1.928571
  B(4) =  -0.571429
  B(5) =   0.071429

 Extrapolation method: ASPC

 Number of electrons:                                                         48
 Number of occupied orbitals:                                                 24
 Number of molecular orbitals:                                                74

 Number of orbital functions:                                                104
 Number of independent orbital functions:                                    104


 SCF WAVEFUNCTION OPTIMIZATION

  Step     Update method      Time    Convergence         Total energy    Change
  ------------------------------------------------------------------------------
     1 Broy./Diag. 0.30E+00    0.7     0.02138741      -180.8091305757 -1.81E+02
     2 Broy./Diag. 0.30E+00    1.3     0.01044987      -180.7444277685  6.47E-02
     3 Broy./Diag. 0.30E+00    1.3     0.00284711      -180.7794407474 -3.50E-02
     4 Broy./Diag. 0.30E+00    1.3     0.00063345      -180.8012129293 -2.18E-02
     5 Broy./Diag. 0.30E+00    1.3     0.00025660      -180.8147633279 -1.36E-02
     6 Broy./Diag. 0.30E+00    1.3     0.00010062      -180.8123335827  2.43E-03
     7 Broy./Diag. 0.30E+00    1.3     0.00002671      -180.8103266992  2.01E-03
     8 Broy./Diag. 0.30E+00    1.3     0.00001156      -180.8099777387  3.49E-04
     9 Broy./Diag. 0.30E+00    1.3     0.00000426      -180.8099890974 -1.14E-05
    10 Broy./Diag. 0.30E+00    1.3     0.00000145      -180.8100332583 -4.42E-05
    11 Broy./Diag. 0.30E+00    1.3     0.00000068      -180.8100583186 -2.51E-05

  *** SCF run converged in    11 steps ***


  Electronic density on regular grids:        -48.0000000003       -0.0000000003
  Core density on regular grids:               48.0000000000       -0.0000000000
  Total charge density on r-space grids:       -0.0000000003
  Total charge density g-space grids:          -0.0000000003

  Overlap energy of the core charge distribution:               0.00000000004581
  Self energy of the core charge distribution:               -379.90298629198736
  Core Hamiltonian energy:                                    102.65581458991976
  Hartree energy:                                             125.49377666164771
  Exchange-correlation energy:                                -29.01817588657708
  Dispersion energy:                                           -0.03848739161203

  Total energy:                                              -180.81005831856316

 ENERGY| Total FORCE_EVAL ( QS ) energy [hartree]           -180.810054800265107

 MD_VEL| Centre of mass motion (COM)
 MD_VEL| VCOM [a.u.]             -0.0000002407     0.0000001621    -0.0000003593

 MD| ***************************************************************************
 MD| Step number                                                              13
 MD| Time [fs]                                                         13.000000
 MD| Conserved quantity [hartree]                            -0.180734654887E+03
 MD| ---------------------------------------------------------------------------
 MD|                                          Instantaneous             Averages
 MD| CPU time per MD step [s]                     20.325033            22.210534
 MD| Energy drift per atom [K]          -0.197348819387E+02  -0.131744731943E+02
 MD| Potential energy [hartree]         -0.180810054800E+03  -0.180791987637E+03
 MD| Kinetic energy [hartree]            0.571848134094E-01   0.518217753491E-01
 MD| Temperature [K]                            2407.668576          2181.867049
 MD| ***************************************************************************
 MD| Estimated peak process memory after this step [MiB]                     327

 Parameters for the always stable predictor-corrector (ASPC) method:

  ASPC order: 3

  B(1) =   3.000000
  B(2) =  -3.428571
  B(3) =   1.928571
  B(4) =  -0.571429
  B(5) =   0.071429

 Extrapolation method: ASPC

 Number of electrons:                                                         48
 Number of occupied orbitals:                                                 24
 Number of molecular orbitals:                                                74

 Number of orbital functions:                                                104
 Number of independent orbital functions:                                    104


 SCF WAVEFUNCTION OPTIMIZATION

  Step     Update method      Time    Convergence         Total energy    Change
  ------------------------------------------------------------------------------
     1 Broy./Diag. 0.30E+00    0.7     0.01999534      -180.8017143302 -1.81E+02
     2 Broy./Diag. 0.30E+00    1.3     0.01010180      -180.7377884918  6.39E-02
     3 Broy./Diag. 0.30E+00    1.3     0.00292231      -180.7717850889 -3.40E-02
     4 Broy./Diag. 0.30E+00    1.3     0.00066173      -180.7934631265 -2.17E-02
     5 Broy./Diag. 0.30E+00    1.3     0.00027260      -180.8072343231 -1.38E-02
     6 Broy./Diag. 0.30E+00    1.3     0.00010263      -180.8049856987  2.25E-03
     7 Broy./Diag. 0.30E+00    1.3     0.00002421      -180.8028868870  2.10E-03
     8 Broy./Diag. 0.30E+00    1.3     0.00001082      -180.8025300378  3.57E-04
     9 Broy./Diag. 0.30E+00    1.3     0.00000391      -180.8025300050  3.28E-08
    10 Broy./Diag. 0.30E+00    1.3     0.00000129      -180.8025696623 -3.97E-05
    11 Broy./Diag. 0.30E+00    1.3     0.00000061      -180.8025942166 -2.46E-05

  *** SCF run converged in    11 steps ***


  Electronic density on regular grids:        -48.0000000001       -0.0000000001
  Core density on regular grids:               48.0000000000       -0.0000000000
  Total charge density on r-space grids:       -0.0000000001
  Total charge density g-space grids:          -0.0000000001

  Overlap energy of the core charge distribution:               0.00000000008926
  Self energy of the core charge distribution:               -379.90298629198736
  Core Hamiltonian energy:                                    102.79096019167997
  Hartree energy:                                             125.39165619747979
  Exchange-correlation energy:                                -29.04374909994142
  Dispersion energy:                                           -0.03847521387364

  Total energy:                                              -180.80259421655342

 ENERGY| Total FORCE_EVAL ( QS ) energy [hartree]           -180.802591282486702

 MD_VEL| Centre of mass motion (COM)
 MD_VEL| VCOM [a.u.]             -0.0000000049     0.0000000556     0.0000007341

 MD| ***************************************************************************
 MD| Step number                                                              14
 MD| Time [fs]                                                         14.000000
 MD| Conserved quantity [hartree]                            -0.180734602409E+03
 MD| ---------------------------------------------------------------------------
 MD|                                          Instantaneous             Averages
 MD| CPU time per MD step [s]                     20.334096            22.076502
 MD| Energy drift per atom [K]          -0.169730152918E+02  -0.134457976298E+02
 MD| Potential energy [hartree]         -0.180802591282E+03  -0.180792745040E+03
 MD| Kinetic energy [hartree]            0.504792891898E-01   0.517258834806E-01
 MD| Temperature [K]                            2125.343969          2177.829686
 MD| ***************************************************************************
 MD| Estimated peak process memory after this step [MiB]                     327

 Parameters for the always stable predictor-corrector (ASPC) method:

  ASPC order: 3

  B(1) =   3.000000
  B(2) =  -3.428571
  B(3) =   1.928571
  B(4) =  -0.571429
  B(5) =   0.071429

 Extrapolation method: ASPC

 Number of electrons:                                                         48
 Number of occupied orbitals:                                                 24
 Number of molecular orbitals:                                                74

 Number of orbital functions:                                                104
 Number of independent orbital functions:                                    104


 SCF WAVEFUNCTION OPTIMIZATION

  Step     Update method      Time    Convergence         Total energy    Change
  ------------------------------------------------------------------------------
     1 Broy./Diag. 0.30E+00    0.7     0.01940255      -180.7934105804 -1.81E+02
     2 Broy./Diag. 0.30E+00    1.3     0.00984677      -180.7275344001  6.59E-02
     3 Broy./Diag. 0.30E+00    1.3     0.00313006      -180.7617712047 -3.42E-02
     4 Broy./Diag. 0.30E+00    1.3     0.00073338      -180.7845171051 -2.27E-02
     5 Broy./Diag. 0.30E+00    1.3     0.00027535      -180.7989860910 -1.45E-02
     6 Broy./Diag. 0.30E+00    1.3     0.00010536      -180.7967998274  2.19E-03
     7 Broy./Diag. 0.30E+00    1.3     0.00002500      -180.7946161836  2.18E-03
     8 Broy./Diag. 0.30E+00    1.3     0.00001077      -180.7942570211  3.59E-04
     9 Broy./Diag. 0.30E+00    1.3     0.00000311      -180.7942508494  6.17E-06
    10 Broy./Diag. 0.30E+00    1.3     0.00000123      -180.7942894574 -3.86E-05
    11 Broy./Diag. 0.30E+00    1.3     0.00000056      -180.7943134245 -2.40E-05

  *** SCF run converged in    11 steps ***


  Electronic density on regular grids:        -47.9999999997        0.0000000003
  Core density on regular grids:               48.0000000000       -0.0000000000
  Total charge density on r-space grids:        0.0000000003
  Total charge density g-space grids:           0.0000000003

  Overlap energy of the core charge distribution:               0.00000000016729
  Self energy of the core charge distribution:               -379.90298629198736
  Core Hamiltonian energy:                                    102.92639192618567
  Hartree energy:                                             125.28985783509393
  Exchange-correlation energy:                                -29.06911287876139
  Dispersion energy:                                           -0.03846401516934

  Total energy:                                              -180.79431342447123

 ENERGY| Total FORCE_EVAL ( QS ) energy [hartree]           -180.794310488596778

 MD_VEL| Centre of mass motion (COM)
 MD_VEL| VCOM [a.u.]              0.0000004888    -0.0000002127     0.0000017655

 MD| ***************************************************************************
 MD| Step number                                                              15
 MD| Time [fs]                                                         15.000000
 MD| Conserved quantity [hartree]                            -0.180734546754E+03
 MD| ---------------------------------------------------------------------------
 MD|                                          Instantaneous             Averages
 MD| CPU time per MD step [s]                     20.300056            21.958073
 MD| Energy drift per atom [K]          -0.140439341701E+02  -0.134856733992E+02
 MD| Potential energy [hartree]         -0.180794310489E+03  -0.180792849404E+03
 MD| Kinetic energy [hartree]            0.420793403033E-01   0.510827806021E-01
 MD| Temperature [K]                            1771.678516          2150.752941
 MD| ***************************************************************************
 MD| Estimated peak process memory after this step [MiB]                     329

 Parameters for the always stable predictor-corrector (ASPC) method:

  ASPC order: 3

  B(1) =   3.000000
  B(2) =  -3.428571
  B(3) =   1.928571
  B(4) =  -0.571429
  B(5) =   0.071429

 Extrapolation method: ASPC

 Number of electrons:                                                         48
 Number of occupied orbitals:                                                 24
 Number of molecular orbitals:                                                74

 Number of orbital functions:                                                104
 Number of independent orbital functions:                                    104


 SCF WAVEFUNCTION OPTIMIZATION

  Step     Update method      Time    Convergence         Total energy    Change
  ------------------------------------------------------------------------------
     1 Broy./Diag. 0.30E+00    0.7     0.01744810      -180.7864053877 -1.81E+02
     2 Broy./Diag. 0.30E+00    1.3     0.00913136      -180.7262537741  6.02E-02
     3 Broy./Diag. 0.30E+00    1.3     0.00287259      -180.7567131062 -3.05E-02
     4 Broy./Diag. 0.30E+00    1.3     0.00073699      -180.7778114856 -2.11E-02
     5 Broy./Diag. 0.30E+00    1.3     0.00025807      -180.7911992381 -1.34E-02
     6 Broy./Diag. 0.30E+00    1.3     0.00010369      -180.7893830452  1.82E-03
     7 Broy./Diag. 0.30E+00    1.3     0.00002307      -180.7874223537  1.96E-03
     8 Broy./Diag. 0.30E+00    1.3     0.00000998      -180.7871097036  3.13E-04
     9 Broy./Diag. 0.30E+00    1.3     0.00000198      -180.7871009160  8.79E-06
    10 Broy./Diag. 0.30E+00    1.3     0.00000106      -180.7871364494 -3.55E-05
    11 Broy./Diag. 0.30E+00    1.3     0.00000045      -180.7871565609 -2.01E-05

  *** SCF run converged in    11 steps ***


  Electronic density on regular grids:        -47.9999999995        0.0000000005
  Core density on regular grids:               48.0000000000       -0.0000000000
  Total charge density on r-space grids:        0.0000000005
  Total charge density g-space grids:           0.0000000005

  Overlap energy of the core charge distribution:               0.00000000028172
  Self energy of the core charge distribution:               -379.90298629198736
  Core Hamiltonian energy:                                    103.04153298732504
  Hartree energy:                                             125.20320719226841
  Exchange-correlation energy:                                -29.09045572263584
  Dispersion energy:                                           -0.03845472619415

  Total energy:                                              -180.78715656094218

 ENERGY| Total FORCE_EVAL ( QS ) energy [hartree]           -180.787153317688677

 MD_VEL| Centre of mass motion (COM)
 MD_VEL| VCOM [a.u.]              0.0000005621    -0.0000005223     0.0000022518

 MD| ***************************************************************************
 MD| Step number                                                              16
 MD| Time [fs]                                                         16.000000
 MD| Conserved quantity [hartree]                            -0.180734460260E+03
 MD| ---------------------------------------------------------------------------
 MD|                                          Instantaneous             Averages
 MD| CPU time per MD step [s]                     20.311359            21.855153
 MD| Energy drift per atom [K]          -0.949179607825E+01  -0.132360560666E+02
 MD| Potential energy [hartree]         -0.180787153318E+03  -0.180792493398E+03
 MD| Kinetic energy [hartree]            0.307488648872E-01   0.498119108699E-01
 MD| Temperature [K]                            1294.628264          2097.245149
 MD| ***************************************************************************
 MD| Estimated peak process memory after this step [MiB]                     329

 Parameters for the always stable predictor-corrector (ASPC) method:

  ASPC order: 3

  B(1) =   3.000000
  B(2) =  -3.428571
  B(3) =   1.928571
  B(4) =  -0.571429
  B(5) =   0.071429

 Extrapolation method: ASPC

 Number of electrons:                                                         48
 Number of occupied orbitals:                                                 24
 Number of molecular orbitals:                                                74

 Number of orbital functions:                                                104
 Number of independent orbital functions:                                    104


 SCF WAVEFUNCTION OPTIMIZATION

  Step     Update method      Time    Convergence         Total energy    Change
  ------------------------------------------------------------------------------
     1 Broy./Diag. 0.30E+00    0.7     0.01820610      -180.7815434164 -1.81E+02
     2 Broy./Diag. 0.30E+00    1.3     0.00835524      -180.7261308874  5.54E-02
     3 Broy./Diag. 0.30E+00    1.3     0.00264252      -180.7534904217 -2.74E-02
     4 Broy./Diag. 0.30E+00    1.3     0.00074955      -180.7734225209 -1.99E-02
     5 Broy./Diag. 0.30E+00    1.3     0.00023247      -180.7858135852 -1.24E-02
     6 Broy./Diag. 0.30E+00    1.3     0.00010457      -180.7841925967  1.62E-03
     7 Broy./Diag. 0.30E+00    1.3     0.00002088      -180.7824706864  1.72E-03
     8 Broy./Diag. 0.30E+00    1.3     0.00000877      -180.7821906074  2.80E-04
     9 Broy./Diag. 0.30E+00    1.3     0.00000132      -180.7821795982  1.10E-05
    10 Broy./Diag. 0.30E+00    1.3     0.00000108      -180.7822156106 -3.60E-05
    11 Broy./Diag. 0.30E+00    1.3     0.00000041      -180.7822314531 -1.58E-05

  *** SCF run converged in    11 steps ***


  Electronic density on regular grids:        -47.9999999997        0.0000000003
  Core density on regular grids:               48.0000000000       -0.0000000000
  Total charge density on r-space grids:        0.0000000003
  Total charge density g-space grids:           0.0000000003

  Overlap energy of the core charge distribution:               0.00000000043484
  Self energy of the core charge distribution:               -379.90298629198736
  Core Hamiltonian energy:                                    103.13470816770645
  Hartree energy:                                             125.13217680405010
  Exchange-correlation energy:                                -29.10768344053112
  Dispersion energy:                                           -0.03844669273367

  Total energy:                                              -180.78223145306072

 ENERGY| Total FORCE_EVAL ( QS ) energy [hartree]           -180.782226527297951

 MD_VEL| Centre of mass motion (COM)
 MD_VEL| VCOM [a.u.]              0.0000002852    -0.0000007636     0.0000021862

 MD| ***************************************************************************
 MD| Step number                                                              17
 MD| Time [fs]                                                         17.000000
 MD| Conserved quantity [hartree]                            -0.180734375293E+03
 MD| ---------------------------------------------------------------------------
 MD|                                          Instantaneous             Averages
 MD| CPU time per MD step [s]                     20.324842            21.765135
 MD| Energy drift per atom [K]          -0.502006683220E+01  -0.127527625822E+02
 MD| Potential energy [hartree]         -0.180782226527E+03  -0.180791889465E+03
 MD| Kinetic energy [hartree]            0.265453600647E-01   0.484432902343E-01
 MD| Temperature [K]                            1117.646897          2039.621722
 MD| ***************************************************************************
 MD| Estimated peak process memory after this step [MiB]                     329

 Parameters for the always stable predictor-corrector (ASPC) method:

  ASPC order: 3

  B(1) =   3.000000
  B(2) =  -3.428571
  B(3) =   1.928571
  B(4) =  -0.571429
  B(5) =   0.071429

 Extrapolation method: ASPC

 Number of electrons:                                                         48
 Number of occupied orbitals:                                                 24
 Number of molecular orbitals:                                                74

 Number of orbital functions:                                                104
 Number of independent orbital functions:                                    104


 SCF WAVEFUNCTION OPTIMIZATION

  Step     Update method      Time    Convergence         Total energy    Change
  ------------------------------------------------------------------------------
     1 Broy./Diag. 0.30E+00    0.7     0.01802647      -180.7803447641 -1.81E+02
     2 Broy./Diag. 0.30E+00    1.3     0.00725662      -180.7320529191  4.83E-02
     3 Broy./Diag. 0.30E+00    1.3     0.00214390      -180.7554654598 -2.34E-02
     4 Broy./Diag. 0.30E+00    1.3     0.00071738      -180.7730175174 -1.76E-02
     5 Broy./Diag. 0.30E+00    1.3     0.00022613      -180.7838076182 -1.08E-02
     6 Broy./Diag. 0.30E+00    1.3     0.00009992      -180.7826043668  1.20E-03
     7 Broy./Diag. 0.30E+00    1.3     0.00001966      -180.7811591093  1.45E-03
     8 Broy./Diag. 0.30E+00    1.3     0.00000787      -180.7809071411  2.52E-04
     9 Broy./Diag. 0.30E+00    1.3     0.00000121      -180.7808941115  1.30E-05
    10 Broy./Diag. 0.30E+00    1.3     0.00000092      -180.7809261310 -3.20E-05

  *** SCF run converged in    10 steps ***


  Electronic density on regular grids:        -47.9999999999        0.0000000001
  Core density on regular grids:               48.0000000000       -0.0000000000
  Total charge density on r-space grids:        0.0000000001
  Total charge density g-space grids:           0.0000000001

  Overlap energy of the core charge distribution:               0.00000000060380
  Self energy of the core charge distribution:               -379.90298629198736
  Core Hamiltonian energy:                                    103.19725475032575
  Hartree energy:                                             125.08265310264088
  Exchange-correlation energy:                                -29.11940773773225
  Dispersion energy:                                           -0.03843995483765

  Total energy:                                              -180.78092613098687

 ENERGY| Total FORCE_EVAL ( QS ) energy [hartree]           -180.780935651161485

 MD_VEL| Centre of mass motion (COM)
 MD_VEL| VCOM [a.u.]              0.0000000001    -0.0000008266     0.0000015334

 MD| ***************************************************************************
 MD| Step number                                                              18
 MD| Time [fs]                                                         18.000000
 MD| Conserved quantity [hartree]                            -0.180734321259E+03
 MD| ---------------------------------------------------------------------------
 MD|                                          Instantaneous             Averages
 MD| CPU time per MD step [s]                     18.953670            21.608942
 MD| Energy drift per atom [K]          -0.217629150510E+01  -0.121651808557E+02
 MD| Potential energy [hartree]         -0.180780935651E+03  -0.180791280920E+03
 MD| Kinetic energy [hartree]            0.240853415036E-01   0.470900708604E-01
 MD| Temperature [K]                            1014.072031          1982.646739
 MD| ***************************************************************************
 MD| Estimated peak process memory after this step [MiB]                     329

 Parameters for the always stable predictor-corrector (ASPC) method:

  ASPC order: 3

  B(1) =   3.000000
  B(2) =  -3.428571
  B(3) =   1.928571
  B(4) =  -0.571429
  B(5) =   0.071429

 Extrapolation method: ASPC

 Number of electrons:                                                         48
 Number of occupied orbitals:                                                 24
 Number of molecular orbitals:                                                74

 Number of orbital functions:                                                104
 Number of independent orbital functions:                                    104


 SCF WAVEFUNCTION OPTIMIZATION

  Step     Update method      Time    Convergence         Total energy    Change
  ------------------------------------------------------------------------------
     1 Broy./Diag. 0.30E+00    0.7     0.01729365      -180.7835559534 -1.81E+02
     2 Broy./Diag. 0.30E+00    1.3     0.00623219      -180.7451095202  3.84E-02
     3 Broy./Diag. 0.30E+00    1.3     0.00173047      -180.7635088831 -1.84E-02
     4 Broy./Diag. 0.30E+00    1.3     0.00065510      -180.7777544001 -1.42E-02
     5 Broy./Diag. 0.30E+00    1.3     0.00020204      -180.7862208881 -8.47E-03
     6 Broy./Diag. 0.30E+00    1.3     0.00009620      -180.7853252481  8.96E-04
     7 Broy./Diag. 0.30E+00    1.3     0.00001499      -180.7842663370  1.06E-03
     8 Broy./Diag. 0.30E+00    1.3     0.00000638      -180.7840627643  2.04E-04
     9 Broy./Diag. 0.30E+00    1.3     0.00000107      -180.7840501612  1.26E-05
    10 Broy./Diag. 0.30E+00    1.3     0.00000078      -180.7840774382 -2.73E-05

  *** SCF run converged in    10 steps ***


  Electronic density on regular grids:        -48.0000000001       -0.0000000001
  Core density on regular grids:               48.0000000000       -0.0000000000
  Total charge density on r-space grids:       -0.0000000001
  Total charge density g-space grids:          -0.0000000001

  Overlap energy of the core charge distribution:               0.00000000074760
  Self energy of the core charge distribution:               -379.90298629198736
  Core Hamiltonian energy:                                    103.22419827614750
  Hartree energy:                                             125.05794195187011
  Exchange-correlation energy:                                -29.12479694859520
  Dispersion energy:                                           -0.03843442638370

  Total energy:                                              -180.78407743820105

 ENERGY| Total FORCE_EVAL ( QS ) energy [hartree]           -180.784083501091857

 MD_VEL| Centre of mass motion (COM)
 MD_VEL| VCOM [a.u.]             -0.0000000857    -0.0000007603     0.0000008223

 MD| ***************************************************************************
 MD| Step number                                                              19
 MD| Time [fs]                                                         19.000000
 MD| Conserved quantity [hartree]                            -0.180734310247E+03
 MD| ---------------------------------------------------------------------------
 MD|                                          Instantaneous             Averages
 MD| CPU time per MD step [s]                     18.954039            21.469210
 MD| Energy drift per atom [K]          -0.159674464049E+01  -0.116089473707E+02
 MD| Potential energy [hartree]         -0.180784083501E+03  -0.180790902108E+03
 MD| Kinetic energy [hartree]            0.251479689495E-01   0.459352233914E-01
 MD| Temperature [K]                            1058.812139          1934.023866
 MD| ***************************************************************************
 MD| Estimated peak process memory after this step [MiB]                     329

 Parameters for the always stable predictor-corrector (ASPC) method:

  ASPC order: 3

  B(1) =   3.000000
  B(2) =  -3.428571
  B(3) =   1.928571
  B(4) =  -0.571429
  B(5) =   0.071429

 Extrapolation method: ASPC

 Number of electrons:                                                         48
 Number of occupied orbitals:                                                 24
 Number of molecular orbitals:                                                74

 Number of orbital functions:                                                104
 Number of independent orbital functions:                                    104


 SCF WAVEFUNCTION OPTIMIZATION

  Step     Update method      Time    Convergence         Total energy    Change
  ------------------------------------------------------------------------------
     1 Broy./Diag. 0.30E+00    0.7     0.01606503      -180.7912172379 -1.81E+02
     2 Broy./Diag. 0.30E+00    1.3     0.00541739      -180.7632905649  2.79E-02
     3 Broy./Diag. 0.30E+00    1.3     0.00135882      -180.7766332530 -1.33E-02
     4 Broy./Diag. 0.30E+00    1.3     0.00060590      -180.7871932146 -1.06E-02
     5 Broy./Diag. 0.30E+00    1.3     0.00018619      -180.7931526735 -5.96E-03
     6 Broy./Diag. 0.30E+00    1.3     0.00009253      -180.7925662523  5.86E-04
     7 Broy./Diag. 0.30E+00    1.3     0.00001102      -180.7918627218  7.04E-04
     8 Broy./Diag. 0.30E+00    1.3     0.00000632      -180.7917110759  1.52E-04
     9 Broy./Diag. 0.30E+00    1.3     0.00000075      -180.7917010038  1.01E-05

  *** SCF run converged in     9 steps ***


  Electronic density on regular grids:        -48.0000000002       -0.0000000002
  Core density on regular grids:               48.0000000000       -0.0000000000
  Total charge density on r-space grids:       -0.0000000002
  Total charge density g-space grids:          -0.0000000002

  Overlap energy of the core charge distribution:               0.00000000082220
  Self energy of the core charge distribution:               -379.90298629198736
  Core Hamiltonian energy:                                    103.21423402648627
  Hartree energy:                                             125.05902824326952
  Exchange-correlation energy:                                -29.12354694025391
  Dispersion energy:                                           -0.03843004212195

  Total energy:                                              -180.79170100378522

 ENERGY| Total FORCE_EVAL ( QS ) energy [hartree]           -180.791724417132173

 MD_VEL| Centre of mass motion (COM)
 MD_VEL| VCOM [a.u.]             -0.0000000162    -0.0000007241     0.0000005231

 MD| ***************************************************************************
 MD| Step number                                                              20
 MD| Time [fs]                                                         20.000000
 MD| Conserved quantity [hartree]                            -0.180734346101E+03
 MD| ---------------------------------------------------------------------------
 MD|                                          Instantaneous             Averages
 MD| CPU time per MD step [s]                     17.619071            21.276703
 MD| Energy drift per atom [K]          -0.348373100030E+01  -0.112026865522E+02
 MD| Potential energy [hartree]         -0.180791724417E+03  -0.180790943223E+03
 MD| Kinetic energy [hartree]            0.306810604742E-01   0.451725152455E-01
 MD| Temperature [K]                            1291.773476          1901.911346
 MD| ***************************************************************************
 MD| Estimated peak process memory after this step [MiB]                     329

 -------------------------------------------------------------------------------
 -                                                                             -
 -                                DBCSR STATISTICS                             -
 -                                                                             -
 -------------------------------------------------------------------------------
 COUNTER                                    TOTAL       BLAS       SMM       ACC
 flops    26 x    10 x    26              3785600     100.0%      0.0%      0.0%     
 flops    26 x    10 x    13              3785600     100.0%      0.0%      0.0%     
 flops    13 x    10 x    13              3785600     100.0%      0.0%      0.0%     
 flops    13 x    10 x    26              3785600     100.0%      0.0%      0.0%     
 flops    26 x    13 x    10              7327840     100.0%      0.0%      0.0%     
 flops    13 x    26 x    10              7327840     100.0%      0.0%      0.0%     
 flops    13 x    13 x    10              9159800     100.0%      0.0%      0.0%     
 flops    26 x    26 x    10             10991760     100.0%      0.0%      0.0%     
 flops    26 x    32 x    26             24227840     100.0%      0.0%      0.0%     
 flops    26 x    32 x    13             24227840     100.0%      0.0%      0.0%     
 flops    13 x    32 x    26             24227840     100.0%      0.0%      0.0%     
 flops    13 x    32 x    13             24227840     100.0%      0.0%      0.0%     
 flops    26 x    13 x    32             46898176     100.0%      0.0%      0.0%     
 flops    13 x    26 x    32             46898176     100.0%      0.0%      0.0%     
 flops    13 x    13 x    32             58622720     100.0%      0.0%      0.0%     
 flops    26 x    26 x    32             70347264     100.0%      0.0%      0.0%     
 flops inhomo. stacks                           0       0.0%      0.0%      0.0%
 flops total                       369.627336E+06     100.0%      0.0%      0.0%
 flops max/rank                    126.694568E+06     100.0%      0.0%      0.0%
 matmuls inhomo. stacks                         0       0.0%      0.0%      0.0%
 matmuls total                              24633     100.0%      0.0%      0.0%
 number of processed stacks                 19755     100.0%      0.0%      0.0%
 average stack size                                     1.2       0.0       0.0
 marketing flops                   252.748320E+06
 -------------------------------------------------------------------------------
 # multiplications                            341
 max memory usage/rank               1.846243E+09
 # max total images/rank                        3
 # max 3D layers                                1
 # MPI messages exchanged                   14322
 MPI messages size (bytes):
  total size                        64.731264E+06
  min size                           0.000000E+00
  max size                          16.640000E+03
  average size                       4.519708E+03
 MPI breakdown and total messages size (bytes):
             size <=      128                5691                        0
       128 < size <=     8192                5501                 24695424
      8192 < size <=    32768                3130                 40035840
     32768 < size <=   131072                   0                        0
    131072 < size <=  4194304                   0                        0
   4194304 < size <= 16777216                   0                        0
  16777216 < size                               0                        0
 -------------------------------------------------------------------------------

 *** WARNING in dbcsr_mm.F:301 :: Using a non-square number of MPI ranks ***
 *** might lead to poor performance. Used ranks: 6 Suggested: 4 9        ***

 -------------------------------------------------------------------------------
 -                                                                             -
 -                      DBCSR MESSAGE PASSING PERFORMANCE                      -
 -                                                                             -
 -------------------------------------------------------------------------------
 ROUTINE             CALLS      AVE VOLUME [Bytes]
 MP_Bcast               17                     12.
 MP_Allreduce         1616                      9.
 MP_Alltoall          8818                   9724.
 MP_ISend             6418                   3639.
 MP_IRecv             7502                   1666.
 -------------------------------------------------------------------------------

 -------------------------------------------------------------------------------
 -                                                                             -
 -                                GRID STATISTICS                              -
 -                                                                             -
 -------------------------------------------------------------------------------
 LP    KERNEL             BACKEND                              COUNT     PERCENT
 4     collocate ortho    CPU                                5191586      26.03%
 4     integrate ortho    CPU                                4757201      23.85%
 5     integrate ortho    CPU                                3751489      18.81%
 5     collocate ortho    CPU                                3619964      18.15%
 6     integrate ortho    CPU                                1367498       6.86%
 6     collocate ortho    CPU                                1161844       5.82%
 7     integrate ortho    CPU                                  97206       0.49%
 0     collocate general  CPU                                    126       0.00%
 1     integrate general  CPU                                    126       0.00%
 -------------------------------------------------------------------------------

 -------------------------------------------------------------------------------
 -                                                                             -
 -                          OFFLOAD MEMPOOL STATISTICS                         -
 -                                                                             -
 -------------------------------------------------------------------------------
 Memory consumption                Number of allocations  Used [MiB]  Size [MiB]
 Device                                               18           2           2
 Host                                                 18           2           2
 -------------------------------------------------------------------------------

 MEMORY| Estimated peak process memory [MiB]                                 329

 -------------------------------------------------------------------------------
 ----                             MULTIGRID INFO                            ----
 -------------------------------------------------------------------------------
 count for grid        1:         507141          cutoff [a.u.]          250.00
 count for grid        2:         247825          cutoff [a.u.]           83.33
 count for grid        3:         345026          cutoff [a.u.]           27.78
 count for grid        4:         331869          cutoff [a.u.]            9.26
 count for grid        5:          72388          cutoff [a.u.]            3.09
 count for grid        6:              0          cutoff [a.u.]            1.03
 count for grid        7:              0          cutoff [a.u.]            0.34
 count for grid        8:              0          cutoff [a.u.]            0.11
 count for grid        9:              0          cutoff [a.u.]            0.04
 count for grid       10:              0          cutoff [a.u.]            0.01
 count for grid       11:              0          cutoff [a.u.]            0.00
 count for grid       12:              0          cutoff [a.u.]            0.00
 count for grid       13:              0          cutoff [a.u.]            0.00
 count for grid       14:              0          cutoff [a.u.]            0.00
 count for grid       15:              0          cutoff [a.u.]            0.00
 count for grid       16:              0          cutoff [a.u.]            0.00
 total gridlevel count  :        1504249

 -------------------------------------------------------------------------------
 -                                                                             -
 -                         MESSAGE PASSING PERFORMANCE                         -
 -                                                                             -
 -------------------------------------------------------------------------------

 ROUTINE             CALLS      AVE VOLUME [Bytes]
 MP_Group               16
 MP_Bcast              543                  36401.
 MP_Allreduce         9613                     45.
 MP_Sync             10286
 MP_Alltoall         15541                 359666.
 MP_SendRecv         20605                  19121.
 MP_ISendRecv        20185                  19489.
 MP_Wait             30225
 MP_ISend            10040                     19.
 MP_IRecv            10040                     19.
 -------------------------------------------------------------------------------


 -------------------------------------------------------------------------------
 -                                                                             -
 -                           R E F E R E N C E S                               -
 -                                                                             -
 -------------------------------------------------------------------------------
 
 CP2K version 2025.2 (Development Version), the CP2K developers group (2025).
 CP2K is freely available from https://www.cp2k.org/ .
 
 T. D. Kuehne, M. Iannuzzi, M. Del Ben, V. V. Rybkin, P. Seewald, F. Stein, T. 
 Laino, R. Z. Khaliullin, O. Schuett, F. Schiffmann, D. Golze, J. Wilhelm, S. 
 Chulkov, M. H. Bani-Hashemian, V. Weber, U. Borstnik, M. Taillefumier, A. S. 
 Jakobovits, A. Lazzaro, H. Pabst, T. Mueller, R. Schade, M. Guidon, S. 
 Andermatt, N. Holmberg, G. K. Schenter, A. Hehn, A. Bussy, F. Belleflamme, G. 
 Tabacchi, A. Gloess, M. Lass, I. Bethune, C. J. Mundy, C. Plessl, M. Watkins, 
 J. VandeVondele, M. Krack, J. Hutter.
 J. Chem. Phys. 152, 194103 (2020).
 CP2K: An electronic structure and molecular dynamics software package - 
 Quickstep: Efficient and accurate electronic structure calculations.
 https://doi.org/10.1063/5.0007045

 L. Goerigk, A. Hansen, C. Bauer, S. Ehrlich, A. Najibi, S. Grimme.
 Phys. Chem. Chem. Phys. 19, 32184-32215 (2017).
 A look at the density functional theory zoo with the advanced GMTKN55 database 
 for general main group thermochemistry, kinetics and noncovalent interactions.
 https://doi.org/10.1039/C7CP04913G

 O. Schuett, P. Messmer, J. Hutter, J. VandeVondele.
 Electronic Structure Calculations on Graphics Processing Units, 173-190 (2016).
 GPU-Accelerated Sparse Matrix-Matrix Multiplication for Linear Scaling Density 
 Functional Theory.
 https://doi.org/10.1002/9781118670712.ch8

 A. Heinecke, G. Henry, M. Hutchinson, H. Pabst.
 Proceedings of Intl. Supercomputing Conference, 981-991 (2016).
 LIBXSMM: Accelerating Small Matrix Multiplications by Runtime Code Generation.
 https://doi.org/10.1109/SC.2016.83

 J. Hutter, M. Iannuzzi, F. Schiffmann, J. VandeVondele.
 WIREs Comput Mol Sci. 4, 15-25 (2014).
 CP2K: atomistic simulations of condensed matter systems.
 https://doi.org/10.1002/wcms.1159

 U. Borstnik, J. VandeVondele, V. Weber, J. Hutter.
 Parallel Comput. 40, 47-58 (2014).
 Sparse matrix multiplication: The distributed block-compressed sparse row 
 library.
 https://doi.org/10.1016/j.parco.2014.03.012

 A. Marek, V. Blum, R. Johanni, V. Havu, B. Lang, T. Auckenthaler, A. Heinecke, 
 H. Bungartz, H. Lederer.
 J. Phys. Condens. Matter 26, 213201 (2014).
 The ELPA library: scalable parallel eigenvalue solutions for electronic 
 structure theory and computational science.
 https://doi.org/10.1088/0953-8984/26/21/213201

 S. Grimme, S. Ehrlich, L. Goerigk.
 J. Comput. Chem. 32, 1456 (2011).
 Effect of the damping function in dispersion corrected density functional 
 theory.
 https://doi.org/10.1002/jcc.21759

 S. Grimme, J. Antony, S. Ehrlich, H. Krieg.
 J. Chem. Phys. 132, 154104 (2010).
 A consistent and accurate ab initio parametrization of density functional 
 dispersion correction (DFT-D) for the 94 elements H-Pu.
 https://doi.org/10.1063/1.3382344

 G. Bussi, D. Donadio, M. Parrinello.
 J. Chem. Phys. 126, 014101 (2007).
 Canonical sampling through velocity rescaling.
 https://doi.org/10.1063/1.2408420

 J. VandeVondele, J. Hutter.
 J. Chem. Phys. 127, 114105 (2007).
 Gaussian basis sets for accurate calculations on molecular systems in gas and 
 condensed phases.
 https://doi.org/10.1063/1.2770708

 T. D. Kühne, M. Krack, F. R. Mohamed, M. Parrinello.
 Phys. Rev. Lett. 98, 066401 (2007).
 Efficient and accurate Car-Parrinello-like approach to Born-Oppenheimer 
 molecular dynamics.
 https://doi.org/10.1103/PhysRevLett.98.066401

 J. VandeVondele, M. Krack, F. Mohamed, M. Parrinello, T. Chassaing, J. Hutter.
 Comput. Phys. Commun. 167, 103-128 (2005).
 QUICKSTEP: Fast and accurate density functional calculations using a mixed 
 Gaussian and plane waves approach.
 https://doi.org/10.1016/j.cpc.2004.12.014

 M. Krack.
 Theor. Chem. Acc. 114, 145-152 (2005).
 Pseudopotentials for H to Kr optimized for gradient-corrected 
 exchange-correlation functionals.
 https://doi.org/10.1007/s00214-005-0655-y

 M. Frigo, S. G. Johnson.
 Proc. IEEE 93, 216-231 (2005).
 The design and implementation of FFTW3.
 https://doi.org/10.1109/JPROC.2004.840301

 J. Kolafa.
 J. Comput. Chem. 25, 335-342 (2004).
 Time-reversible always stable predictor-corrector method for molecular dynamics 
 of polarizable molecules.
 https://doi.org/10.1002/jcc.10385

 C. Hartwigsen, S. Goedecker, J. Hutter.
 Phys. Rev. B 58, 3641-3662 (1998).
 Relativistic separable dual-space Gaussian pseudopotentials from H to Rn.
 https://doi.org/10.1103/PhysRevB.58.3641

 G. Lippert, J. Hutter, M. Parrinello.
 Mol. Phys. 92, 477-487 (1997).
 A hybrid Gaussian and plane wave density functional scheme.
 https://doi.org/10.1080/002689797170220

 S. Goedecker, M. Teter, J. Hutter.
 Phys. Rev. B 54, 1703-1710 (1996).
 Separable dual-space Gaussian pseudopotentials.
 https://doi.org/10.1103/PhysRevB.54.1703

 J. P. Perdew, K. Burke, M. Ernzerhof.
 Phys. Rev. Lett. 77, 3865-3868 (1996).
 Generalized gradient approximation made simple.
 https://doi.org/10.1103/PhysRevLett.77.3865


 -------------------------------------------------------------------------------
 -                                                                             -
 -                                T I M I N G                                  -
 -                                                                             -
 -------------------------------------------------------------------------------
 SUBROUTINE                       CALLS  ASD         SELF TIME        TOTAL TIME
                                MAXIMUM       AVERAGE  MAXIMUM  AVERAGE  MAXIMUM
 CP2K                                 1  1.0    0.010    0.012  425.747  425.755
 qs_mol_dyn_low                       1  2.0    0.020    0.020  425.569  425.575
 qs_forces                           21  4.0    0.002    0.002  425.062  425.069
 velocity_verlet                     20  3.0    0.006    0.007  398.119  398.160
 qs_energies                         21  5.0    0.001    0.001  339.956  340.007
 scf_env_do_scf                      21  6.0    0.001    0.001  307.699  307.718
 scf_env_do_scf_inner_loop          230  6.9    0.007    0.015  307.698  307.717
 rebuild_ks_matrix                  251  8.7    0.001    0.001  137.579  184.621
 qs_ks_build_kohn_sham_matrix       251  9.7    0.024    0.027  137.578  184.620
 sum_up_and_integrate               251 10.7    0.002    0.003  130.960  178.006
 integrate_v_rspace                 251 11.7    0.022    0.022  130.920  177.966
 grid_integrate_task_list           251 12.7  127.187  174.231  127.187  174.231
 qs_ks_update_qs_env                230  7.9    0.002    0.002  120.264  159.445
 qs_rho_update_rho_low              251  8.0    0.001    0.001  153.130  153.151
 calculate_rho_elec                 251  9.0    0.071    0.073  153.129  153.150
 grid_collocate_task_list           251 10.0  111.908  148.552  111.908  148.552
 transfer_rs2pw                    4037 11.0    0.016    0.017   43.262   76.303
 transfer_rs2pw_250                 272 11.9    0.157    0.167   43.063   76.100
 mp_sendrecv_dv                   20185 13.0   42.966   75.996   42.966   75.996
 qs_scf_new_mos                     230  7.9    0.003    0.003   45.200   73.446
 density_rs2pw                      251 10.0    0.027    0.027   41.120   70.443
 copy_dbcsr_to_fm                   321  9.0    0.005    0.005   39.562   67.978
 mp_alltoall_i22                   1254 11.8   39.416   67.866   39.416   67.866
 dbcsr_desymmetrize_deep            321 10.0    0.007    0.008   39.375   67.788
 build_core_hamiltonian_matrix_      21  5.0    0.001    0.001   34.157   59.846
 mp_sum_d                          2975  9.2   26.211   42.809   26.211   42.809
 calculate_ecore_overlap             42  6.0    0.000    0.000   25.855   42.477
 build_core_ppl_forces               21  6.0   16.931   31.158   16.931   31.158
 qs_ks_update_qs_env_forces          21  5.0    0.000    0.000   17.341   25.196
 qs_energies_init_hamiltonians       21  6.0    0.000    0.000   18.351   18.351
 build_core_hamiltonian_matrix       21  7.0    0.001    0.001   11.047   17.203
 init_scf_run                        21  6.0    0.001    0.001   13.681   13.682
 scf_env_initial_rho_setup           21  7.0    0.000    0.000   13.655   13.656
 build_core_ppnl_forces              21  6.0    7.798   13.337    7.798   13.337
 wfi_extrapolate                     21  8.0    0.002    0.003   12.988   12.988
 mp_sum_dm                         1110  5.8    7.871   12.502    7.871   12.502
 fft_wrap_pw1pw2                  10521 12.6    0.064    0.066   10.523   10.705
 build_overlap_matrix_low            42  7.0    6.285   10.513    6.292   10.521
 qs_env_update_s_mstruct             21  7.0    0.000    0.000    6.465   10.168
 build_kinetic_matrix_low            42  7.0    6.225   10.061    6.232   10.069
 calculate_rho_core                  21  8.0    0.007    0.010    6.230    9.963
 fft3d_ps                         10521 14.6    3.325    3.621    8.639    8.824
 build_core_ppl                      21  8.0    5.546    8.810    5.546    8.810
 -------------------------------------------------------------------------------

 The number of warnings for this run is : 1
 
 -------------------------------------------------------------------------------
  **** **** ******  **  PROGRAM ENDED AT                 2026-06-22 12:29:47.228
 ***** ** ***  *** **   PROGRAM RAN ON            cpn-b01-35-01.core.ccr.buffalo
 **    ****   ******    PROGRAM RAN BY                                  alexeyak
 ***** **    ** ** **   PROGRAM PROCESS ID                               4008327
  **** **  *******  **  PROGRAM STOPPED IN /projects/academic/cyberwksp21/Studen
                                           ts/alexeyak/libra_examples/Tutorials_
                                           Libra/6_dynamics/2_nbra_workflows/6_s
                                           tep1_cp2k/1_DFT/3_example_TiO2_June_2
                                           026
