       6
 i =        0, time =        0.000, E =      -180.7414052415
 Ti        -0.0000000302       -0.0000000301        0.0000000002
 Ti        -0.0000000465       -0.0000000465       -0.0000000002
  O        -0.0728241113        0.0728241020        0.0000000001
  O         0.0728241021       -0.0728241113        0.0000000001
  O         0.0728241579        0.0728241579       -0.0000000001
  O        -0.0728240717       -0.0728240717       -0.0000000001
       6
 i =        1, time =        1.000, E =      -180.7455178607
 Ti        -0.0035140674        0.0025659854       -0.0061540070
 Ti        -0.0022082290        0.0012538720       -0.0044957690
  O        -0.0697016318        0.0689224422        0.0030540503
  O         0.0734117848       -0.0731027954        0.0007050444
  O         0.0740884321        0.0718029092        0.0035959154
  O        -0.0712493729       -0.0724066242        0.0021673796
       6
 i =        2, time =        2.000, E =      -180.7523485033
 Ti        -0.0071958337        0.0051337427       -0.0125592367
 Ti        -0.0043111770        0.0024093577       -0.0091515493
  O        -0.0650382058        0.0641471830        0.0063298287
  O         0.0724886132       -0.0722353060        0.0013509713
  O         0.0740325760        0.0700094434        0.0072987281
  O        -0.0688027846       -0.0711365881        0.0046347550
       6
 i =        3, time =        3.000, E =      -180.7612585051
 Ti        -0.0108960705        0.0075832564       -0.0188665427
 Ti        -0.0061469396        0.0033565703       -0.0137591616
  O        -0.0577232774        0.0585395718        0.0096664293
  O         0.0685956683       -0.0691895983        0.0018481426
  O         0.0712619111        0.0673432663        0.0108681210
  O        -0.0652263954       -0.0687271451        0.0075182145
       6
 i =        4, time =        4.000, E =      -180.7714332992
 Ti        -0.0146029607        0.0099533009       -0.0249679054
 Ti        -0.0076235351        0.0040216920       -0.0182850041
  O        -0.0476279159        0.0517087758        0.0130160475
  O         0.0614274225       -0.0627706138        0.0024036528
  O         0.0652999571        0.0633601662        0.0142275918
  O        -0.0598639912       -0.0645450677        0.0108445609
       6
 i =        5, time =        5.000, E =      -180.7820715809
 Ti        -0.0183794536        0.0123358736       -0.0308499499
 Ti        -0.0086793804        0.0043492232       -0.0227708305
  O        -0.0370719012        0.0429312851        0.0163699229
  O         0.0544967207       -0.0545222036        0.0035220898
  O         0.0586573568        0.0569865467        0.0174931348
  O        -0.0519397796       -0.0578110606        0.0144928888
       6
 i =        6, time =        6.000, E =      -180.7922630243
 Ti        -0.0221891533        0.0147191033       -0.0362740650
 Ti        -0.0092459676        0.0042572247       -0.0270941481
  O        -0.0284710097        0.0322986634        0.0198164792
  O         0.0494256149       -0.0474322513        0.0044914108
  O         0.0542352150        0.0481242678        0.0205951662
  O        -0.0419127329       -0.0489525206        0.0178776919
       6
 i =        7, time =        7.000, E =      -180.8017571363
 Ti        -0.0262271769        0.0172208753       -0.0412180007
 Ti        -0.0093470431        0.0036513683       -0.0312977042
  O        -0.0196084602        0.0201943552        0.0236004735
  O         0.0420532358       -0.0408972205        0.0053198243
  O         0.0487508182        0.0374005235        0.0234424969
  O        -0.0311828846       -0.0395546135        0.0201555937
       6
 i =        8, time =        8.000, E =      -180.8097703092
 Ti        -0.0305930333        0.0199473546       -0.0454058349
 Ti        -0.0089398743        0.0024182717       -0.0352397921
  O        -0.0070119775        0.0078071310        0.0276669960
  O         0.0292335204       -0.0306795307        0.0059832477
  O         0.0378692036        0.0265690275        0.0262650049
  O        -0.0211845474       -0.0312004280        0.0207856381
       6
 i =        9, time =        9.000, E =      -180.8155109916
 Ti        -0.0352846809        0.0230074782       -0.0484367047
 Ti        -0.0078830547        0.0004793338       -0.0387047557
  O         0.0085163748       -0.0040151339        0.0319067961
  O         0.0161077055       -0.0156398475        0.0064937901
  O         0.0259235918        0.0163280701        0.0290140730
  O        -0.0109240874       -0.0225426768        0.0196296853
       6
 i =       10, time =       10.000, E =      -180.8187615877
 Ti        -0.0403371789        0.0264583573       -0.0497357086
 Ti        -0.0059468970       -0.0023671389       -0.0413975646
  O         0.0230899612       -0.0158954228        0.0363034072
  O         0.0052471607       -0.0006976570        0.0063580995
  O         0.0170437457        0.0044072809        0.0313424328
  O         0.0024881844       -0.0101931152        0.0167224206
       6
 i =       11, time =       11.000, E =      -180.8190800047
 Ti        -0.0457608235        0.0302783363       -0.0483903200
 Ti        -0.0029681322       -0.0064543842       -0.0427623912
  O         0.0358731483       -0.0290693684        0.0406340958
  O        -0.0103588789        0.0130946809        0.0052092389
  O         0.0045120998       -0.0119319021        0.0328969519
  O         0.0209515565        0.0068058709        0.0128555742
       6
 i =       12, time =       12.000, E =      -180.8160116812
 Ti        -0.0510121134        0.0341422624       -0.0439122332
 Ti         0.0007799429       -0.0115965978       -0.0422621272
  O         0.0486329892       -0.0428287996        0.0442721468
  O        -0.0293866526        0.0300314641        0.0028971021
  O        -0.0118779826       -0.0308107455        0.0329142032
  O         0.0396096321        0.0222965704        0.0098154613
       6
 i =       13, time =       13.000, E =      -180.8100548003
 Ti        -0.0560758921        0.0381345109       -0.0359779316
 Ti         0.0052939929       -0.0178144247       -0.0396445491
  O         0.0626739430       -0.0567056479        0.0470631497
  O        -0.0450904603        0.0503902127       -0.0010297449
  O        -0.0244553868       -0.0496386209        0.0302331353
  O         0.0566887920        0.0355749894        0.0063021986
       6
 i =       14, time =       14.000, E =      -180.8025912825
 Ti        -0.0606805991        0.0421085345       -0.0247831672
 Ti         0.0102271140       -0.0247509621       -0.0348492390
  O         0.0759194749       -0.0690735765        0.0484664194
  O        -0.0580252685        0.0684233764       -0.0062658674
  O        -0.0350057475       -0.0663491855        0.0244759933
  O         0.0718599360        0.0481919200        0.0013789370
       6
 i =       15, time =       15.000, E =      -180.7943104886
 Ti        -0.0649312170        0.0462363207       -0.0099306297
 Ti         0.0154767234       -0.0325067443       -0.0276285303
  O         0.0872143962       -0.0794741805        0.0478446844
  O        -0.0724139300        0.0833641181       -0.0128734027
  O        -0.0489291785       -0.0818738909        0.0152577356
  O         0.0863773658        0.0618546095       -0.0062312942
       6
 i =       16, time =       16.000, E =      -180.7871533177
 Ti        -0.0682906645        0.0500818886        0.0063813027
 Ti         0.0201466590       -0.0399639971       -0.0191027832
  O         0.0947884979       -0.0862583959        0.0449996389
  O        -0.0853351213        0.0949159111       -0.0197543735
  O        -0.0612128878       -0.0949549862        0.0047890628
  O         0.0985153947        0.0740319914       -0.0155308597
       6
 i =       17, time =       17.000, E =      -180.7822265273
 Ti        -0.0707545436        0.0537044943        0.0235903911
 Ti         0.0240386719       -0.0469829129       -0.0097058556
  O         0.0990098836       -0.0894422016        0.0403624825
  O        -0.0944068740        0.1038986809       -0.0265070096
  O        -0.0685405996       -0.1057751737       -0.0055383515
  O         0.1080947431        0.0834791370       -0.0252830938
       6
 i =       18, time =       18.000, E =      -180.7809356512
 Ti        -0.0720115441        0.0568142626        0.0398060497
 Ti         0.0266223316       -0.0528469546       -0.0006185371
  O         0.0997579809       -0.0888497625        0.0354994793
  O        -0.0983144077        0.1091710712       -0.0321827250
  O        -0.0714452264       -0.1131175809       -0.0145010567
  O         0.1140673615        0.0888267564       -0.0333233516
       6
 i =       19, time =       19.000, E =      -180.7840835011
 Ti        -0.0718107579        0.0591019740        0.0533420025
 Ti         0.0274772653       -0.0569398426        0.0070323783
  O         0.0971535417       -0.0849661013        0.0321648622
  O        -0.0972615328        0.1098314146       -0.0359504085
  O        -0.0713820537       -0.1163280071       -0.0219034059
  O         0.1159279600        0.0897363336       -0.0385247329
       6
 i =       20, time =       20.000, E =      -180.7917244171
 Ti        -0.0699841457        0.0601935189        0.0628608042
 Ti         0.0263428659       -0.0587399158        0.0123489332
  O         0.0913921633       -0.0789277460        0.0306268490
  O        -0.0917686209        0.1058522021       -0.0372549993
  O        -0.0687042011       -0.1150350631       -0.0278532447
  O         0.1135670702        0.0863360342       -0.0407339079
