       6
 i =        0, time =        0.000, E =      -180.7414052415
 Ti         0.0000261980        0.0000088136       -0.0000391253
 Ti        -0.0001030829        0.0000786430       -0.0000658513
  O        -0.0002611133       -0.0000153354       -0.0002207638
  O         0.0002762754       -0.0001909644        0.0001621703
  O         0.0002453944       -0.0000321406        0.0000636964
  O        -0.0000305323       -0.0000232122        0.0003089662
       6
 i =        1, time =        1.000, E =      -180.7455178607
 Ti         0.0000244012        0.0000090916       -0.0000391265
 Ti        -0.0000997883        0.0000760281       -0.0000644730
  O        -0.0003518491        0.0000850815       -0.0002104431
  O         0.0003690637       -0.0002866920        0.0001566659
  O         0.0003398021        0.0000709273        0.0000638724
  O        -0.0001308909       -0.0001246570        0.0002990597
       6
 i =        2, time =        2.000, E =      -180.7523485033
 Ti         0.0000240665        0.0000117924       -0.0000472635
 Ti        -0.0001105813        0.0000839360       -0.0000737268
  O        -0.0004817814        0.0001891653       -0.0002230957
  O         0.0005086565       -0.0004182696        0.0001726235
  O         0.0004782978        0.0001800257        0.0000776502
  O        -0.0002442552       -0.0002399699        0.0003316020
       6
 i =        3, time =        3.000, E =      -180.7612585051
 Ti         0.0000194182        0.0000146110       -0.0000539454
 Ti        -0.0001113225        0.0000839857       -0.0000779845
  O        -0.0005609776        0.0002728820       -0.0002083081
  O         0.0006003769       -0.0005116434        0.0001721856
  O         0.0005734670        0.0002742461        0.0000892708
  O        -0.0003351239       -0.0003350274        0.0003350049
       6
 i =        4, time =        4.000, E =      -180.7714332992
 Ti         0.0000131232        0.0000184987       -0.0000633879
 Ti        -0.0001127983        0.0000843921       -0.0000842784
  O        -0.0006261400        0.0003460351       -0.0001890812
  O         0.0006822521       -0.0005962810        0.0001724536
  O         0.0006603615        0.0003617499        0.0001054937
  O        -0.0004177224       -0.0004233761        0.0003426162
       6
 i =        5, time =        5.000, E =      -180.7820715809
 Ti         0.0000053041        0.0000237692       -0.0000765782
 Ti        -0.0001166042        0.0000863331       -0.0000939616
  O        -0.0006858544        0.0004129325       -0.0001681626
  O         0.0007640665       -0.0006791078        0.0001765677
  O         0.0007478796        0.0004468570        0.0001279210
  O        -0.0004967477       -0.0005098768        0.0003604026
       6
 i =        6, time =        6.000, E =      -180.7922630243
 Ti        -0.0000045167        0.0000291740       -0.0000892498
 Ti        -0.0001159578        0.0000847507       -0.0001018211
  O        -0.0007035011        0.0004488759       -0.0001354993
  O         0.0008056018       -0.0007228113        0.0001748391
  O         0.0007964430        0.0005025297        0.0001495201
  O        -0.0005423600       -0.0005640779        0.0003682097
       6
 i =        7, time =        7.000, E =      -180.8017571363
 Ti        -0.0000157808        0.0000359040       -0.0001050838
 Ti        -0.0001172273        0.0000843428       -0.0001128275
  O        -0.0007185030        0.0004737955       -0.0001013296
  O         0.0008484040       -0.0007656130        0.0001770635
  O         0.0008475857        0.0005492520        0.0001765006
  O        -0.0005792725       -0.0006112515        0.0003851149
       6
 i =        8, time =        8.000, E =      -180.8097703092
 Ti        -0.0000291765        0.0000444793       -0.0001249126
 Ti        -0.0001207173        0.0000851684       -0.0001278232
  O        -0.0007321793        0.0004902464       -0.0000641148
  O         0.0008929055       -0.0008109271        0.0001838080
  O         0.0009030016        0.0005907388        0.0002105709
  O        -0.0006122854       -0.0006571116        0.0004114209
       6
 i =        9, time =        9.000, E =      -180.8155109916
 Ti        -0.0000448734        0.0000546248       -0.0001469796
 Ti        -0.0001243274        0.0000855638       -0.0001451078
  O        -0.0007285249        0.0004912431       -0.0000211435
  O         0.0009222988       -0.0008413106        0.0001921142
  O         0.0009455989        0.0006194410        0.0002494946
  O        -0.0006331709       -0.0006933627        0.0004389731
       6
 i =       10, time =       10.000, E =      -180.8187615877
 Ti        -0.0000634477        0.0000670526       -0.0001720687
 Ti        -0.0001290016        0.0000860537       -0.0001658559
  O        -0.0007139301        0.0004824045        0.0000274159
  O         0.0009477197       -0.0008622516        0.0002034207
  O         0.0009867358        0.0006410873        0.0002954131
  O        -0.0006461701       -0.0007244062        0.0004698051
       6
 i =       11, time =       11.000, E =      -180.8190800047
 Ti        -0.0000812861        0.0000781384       -0.0001897539
 Ti        -0.0001276022        0.0000817717       -0.0001805394
  O        -0.0006550027        0.0004391118        0.0000788776
  O         0.0009191216       -0.0008309780        0.0002058730
  O         0.0009751925        0.0006189834        0.0003311549
  O        -0.0006131359       -0.0007074948        0.0004774108
       6
 i =       12, time =       12.000, E =      -180.8160116812
 Ti        -0.0001018486        0.0000912417       -0.0002066347
 Ti        -0.0001250056        0.0000755765       -0.0001959492
  O        -0.0005801669        0.0003783178        0.0001361270
  O         0.0008690490       -0.0007806953        0.0002065104
  O         0.0009463197        0.0005741287        0.0003689559
  O        -0.0005560060       -0.0006699909        0.0004815879
       6
 i =       13, time =       13.000, E =      -180.8100548003
 Ti        -0.0001226321        0.0001044660       -0.0002174767
 Ti        -0.0001191591        0.0000661728       -0.0002076323
  O        -0.0004835274        0.0002969135        0.0001935773
  O         0.0007872245       -0.0006979688        0.0002004140
  O         0.0008877589        0.0004987556        0.0003988668
  O        -0.0004704676       -0.0006065991        0.0004753955
       6
 i =       14, time =       14.000, E =      -180.8025912825
 Ti        -0.0001512332        0.0001242581       -0.0002333915
 Ti        -0.0001162656        0.0000564895       -0.0002267484
  O        -0.0003881187        0.0002093743        0.0002628742
  O         0.0007191060       -0.0006180777        0.0001965651
  O         0.0008513883        0.0004195399        0.0004404844
  O        -0.0003821212       -0.0005510417        0.0004840515
       6
 i =       15, time =       15.000, E =      -180.7943104886
 Ti        -0.0001796935        0.0001441884       -0.0002403330
 Ti        -0.0001097320        0.0000429117       -0.0002401736
  O        -0.0002728321        0.0001050902        0.0003285651
  O         0.0006249539       -0.0005095708        0.0001823112
  O         0.0007889295        0.0003144682        0.0004659847
  O        -0.0002702678       -0.0004718775        0.0004783442
       6
 i =       16, time =       16.000, E =      -180.7871533177
 Ti        -0.0002015280        0.0001592174       -0.0002284195
 Ti        -0.0000955235        0.0000235722       -0.0002384358
  O        -0.0001301538       -0.0000172287        0.0003765361
  O         0.0004806811       -0.0003569565        0.0001496566
  O         0.0006694932        0.0001732259        0.0004553865
  O        -0.0001256899       -0.0003511252        0.0004376396
       6
 i =       17, time =       17.000, E =      -180.7822265273
 Ti        -0.0002373914        0.0001860954       -0.0002240530
 Ti        -0.0000861014        0.0000029974       -0.0002483000
  O         0.0000073843       -0.0001435961        0.0004424860
  O         0.0003575729       -0.0002186231        0.0001182924
  O         0.0005846134        0.0000312437        0.0004604834
  O         0.0000211024       -0.0002423758        0.0004137501
       6
 i =       18, time =       18.000, E =      -180.7809356512
 Ti        -0.0002661806        0.0002083289       -0.0002037642
 Ti        -0.0000720054       -0.0000209830       -0.0002451171
  O         0.0001496576       -0.0002680933        0.0004867713
  O         0.0002113197       -0.0000609528        0.0000735396
  O         0.0004709800       -0.0001263314        0.0004356337
  O         0.0001798280       -0.0001133767        0.0003623270
       6
 i =       19, time =       19.000, E =      -180.7840835011
 Ti        -0.0002884243        0.0002265255       -0.0001730591
 Ti        -0.0000561800       -0.0000458577       -0.0002329900
  O         0.0002815299       -0.0003786061        0.0005132231
  O         0.0000647448        0.0000955671        0.0000224804
  O         0.0003502173       -0.0002820741        0.0003911789
  O         0.0003336390        0.0000170005        0.0002961446
       6
 i =       20, time =       20.000, E =      -180.7917244171
 Ti        -0.0003107749        0.0002459284       -0.0001395437
 Ti        -0.0000415470       -0.0000711244       -0.0002198224
  O         0.0004025888       -0.0004788667        0.0005379681
  O        -0.0000695065        0.0002424580       -0.0000294146
  O         0.0002395067       -0.0004329777        0.0003419523
  O         0.0004813255        0.0001391792        0.0002298684
