&CONTROL
    calculation = 'scf'
    prefix = 'Cs4SnBr6_T100'
    pseudo_dir = 'PP'
    outdir = './'
/

&SYSTEM
    ibrav = 0
    celldm(1) = 1.8897
    nat = 66
    ntyp = 3
    nbnd = 350
    ecutwfc = 60.0
    ecutrho = 600
    occupations = 'smearing'
    smearing = 'gaussian'
    degauss = 0.005
    !lspinorb = .true.
    !noncolin = .true.
    !vdw_corr = 'DFT-D3'
/

&ELECTRONS
    conv_thr = 1.0d-6
    mixing_beta = 0.7
/

ATOMIC_SPECIES
     Cs 132.9 Cs.pbe-spn-kjpaw_psl.1.0.0.UPF
     Sn 118.7 Sn.pbe-dn-kjpaw_psl.1.0.0.UPF
     Br 79.90 Br.pbe-n-kjpaw_psl.1.0.0.UPF

K_POINTS automatic
     1 1 1 0 0 0

ATOMIC_POSITIONS crystal
     Cs  0.624549985  0            0.25
     Cs  0.375450015  0            0.75
     Cs  0            0.624549985  0.25
     Cs  0            0.375450015  0.75
     Cs  0.375450015  0.375450015  0.25
     Cs  0.624549985  0.624549985  0.75
     Cs  0.291216642  0.333333343  0.583333313
     Cs  0.042116683  0.333333343  0.083333336
     Cs  0.666666687  0.957883298  0.583333313
     Cs  0.666666687  0.708783329  0.083333336
     Cs  0.042116683  0.708783329  0.583333313
     Cs  0.291216642  0.957883298  0.083333336
     Cs  0.957883298  0.666666687  0.916666687
     Cs  0.708783329  0.666666687  0.416666657
     Cs  0.333333343  0.291216642  0.916666687
     Cs  0.333333343  0.042116683  0.416666657
     Cs  0.708783329  0.042116683  0.916666687
     Cs  0.957883298  0.291216642  0.416666657
     Cs  0            0            0.25
     Cs  0            0            0.75
     Cs  0.666666687  0.333333343  0.583333313
     Cs  0.666666687  0.333333343  0.083333336
     Cs  0.333333343  0.666666687  0.916666687
     Cs  0.333333343  0.666666687  0.416666657
     Sn  0            0            0
     Sn  0            0            0.5
     Sn  0.666666687  0.333333343  0.333333343
     Sn  0.666666687  0.333333343  0.833333313
     Sn  0.333333343  0.666666687  0.666666687
     Sn  0.333333343  0.666666687  0.166666672
     Br  0.695159972  0.525330007  0.232559994
     Br  0.304840028  0.474669993  0.767440021
     Br  0.474669993  0.169829965  0.232559994
     Br  0.525330007  0.830170035  0.767440021
     Br  0.830170035  0.304840028  0.232559994
     Br  0.169829965  0.695159972  0.767440021
     Br  0.525330007  0.695159972  0.267440021
     Br  0.474669993  0.304840028  0.732559979
     Br  0.169829965  0.474669993  0.267440021
     Br  0.830170035  0.525330007  0.732559979
     Br  0.304840028  0.830170035  0.267440021
     Br  0.695159972  0.169829965  0.732559979
     Br  0.361826628  0.858663321  0.565893352
     Br  0.971506715  0.808003306  0.100773342
     Br  0.141336665  0.503163278  0.565893352
     Br  0.191996679  0.163503364  0.100773342
     Br  0.496836692  0.638173342  0.565893352
     Br  0.836496651  0.028493306  0.100773342
     Br  0.191996679  0.028493306  0.600773335
     Br  0.141336665  0.638173342  0.06589333
     Br  0.836496651  0.808003306  0.600773335
     Br  0.496836692  0.858663321  0.06589333
     Br  0.971506715  0.163503364  0.600773335
     Br  0.361826628  0.503163278  0.06589333
     Br  0.028493306  0.191996679  0.899226665
     Br  0.638173342  0.141336665  0.434106678
     Br  0.808003306  0.836496651  0.899226665
     Br  0.858663321  0.496836692  0.434106678
     Br  0.163503364  0.971506715  0.899226665
     Br  0.503163278  0.361826628  0.434106678
     Br  0.858663321  0.361826628  0.934106648
     Br  0.808003306  0.971506715  0.399226665
     Br  0.503163278  0.141336665  0.934106648
     Br  0.163503364  0.191996679  0.399226665
     Br  0.638173342  0.496836692  0.934106648
     Br  0.028493306  0.836496651  0.399226665

CELL_PARAMETERS (alat)
       13.5598001480         0.0000000000         0.0000000000
       -6.7799000740        11.7431313984         0.0000000000
        0.0000000000         0.0000000000        17.1627998352
