
&GLOBAL
  PROJECT ch2o
  RUN_TYPE ENERGY
  PRINT_LEVEL LOW
&END GLOBAL
 
&FORCE_EVAL
  
  &DFT
    BASIS_SET_FILE_NAME BASIS_MOLOPT
    BASIS_SET_FILE_NAME BASIS_ADMM
    BASIS_SET_FILE_NAME BASIS_ADMM_MOLOPT
    BASIS_SET_FILE_NAME GTH_BASIS_SETS
    POTENTIAL_FILE_NAME GTH_POTENTIALS

    CHARGE 0
    MULTIPLICITY 1
    UKS .FALSE.

    
    
    
    &SCF
      MAX_SCF 100
      SCF_GUESS RESTART
      EPS_SCF 1.e-6        
      
      &DIAGONALIZATION
        &DAVIDSON
          PRECONDITIONER FULL_SINGLE_INVERSE
          ENERGY_GAP 0.01
        &END
      &END DIAGONALIZATION
        
      
      ADDED_MOS 10
      
      
      &SMEAR
        METHOD FERMI_DIRAC
        ELECTRONIC_TEMPERATURE 3000.0
      &END
      
    &END SCF
    
    
    &QS
      METHOD xTB
      
      &xTB
        DO_EWALD  F
        CHECK_ATOMIC_CHARGES  F
        COULOMB_INTERACTION T
        &PARAMETER
          DISPERSION_PARAMETER_FILE dftd3.dat
          PARAM_FILE_NAME xTB_parameters
        &END PARAMETER
      &END xTB
        
    &END QS
    
    
    &POISSON
      POISSON_SOLVER PERIODIC
      PERIODIC XYZ
    &END POISSON
    
    
    
    &PRINT
      &MO
        ENERGIES .TRUE.
        OCCUPATION_NUMBERS .TRUE.
        NDIGITS 8
        &EACH
          QS_SCF 0
        &END
      &END
    &END
    
  &END DFT

    
  
  
  &SUBSYS
    
    &CELL
      A 30.0 0.0 0.0
      B 0.0 30.0 0.0
      C 0.0 0.0 30.0
      PERIODIC XYZ
    &END CELL
    
    
    &TOPOLOGY   
      COORD_FILE_NAME ch2o.xyz
      COORD_FILE_FORMAT XYZ
      &CENTER_COORDINATES T
      &END
    &END    
    
    
    &KIND H
      ELEMENT H
      BASIS_SET ORB DZVP-GTH
      BASIS_SET AUX_FIT cFIT3 
      POTENTIAL GTH-PBE-q1
      
    &END
        
    &KIND C
      ELEMENT C
      BASIS_SET ORB DZVP-GTH
      BASIS_SET AUX_FIT cFIT3 
      POTENTIAL GTH-PBE-q4
      
    &END
        
    &KIND O
      ELEMENT O
      BASIS_SET ORB DZVP-GTH
      BASIS_SET AUX_FIT cFIT3 
      POTENTIAL GTH-PBE-q6
      
    &END
        
  &END SUBSYS
    
&END FORCE_EVAL
