    3
step    0
O  0.000  0.000  -0.056
H  0.759  0.000  0.448
H  -0.759  0.000  0.448
    3
step    1
O  0.000  -0.000  -0.056
H  0.757  0.000  0.444
H  -0.759  0.000  0.445
    3
step    2
O  0.000  -0.000  -0.056
H  0.762  0.000  0.444
H  -0.767  -0.000  0.447
    3
step    3
O  0.000  -0.000  -0.057
H  0.773  0.000  0.450
H  -0.779  -0.000  0.453
    3
step    4
O  0.000  -0.000  -0.058
H  0.788  0.000  0.459
H  -0.794  -0.000  0.462
    3
step    5
O  0.000  -0.000  -0.059
H  0.806  -0.000  0.470
H  -0.810  0.000  0.473
    3
step    6
O  0.000  0.000  -0.061
H  0.822  0.000  0.482
H  -0.826  -0.000  0.484
    3
step    7
O  0.000  -0.000  -0.062
H  0.836  0.000  0.493
H  -0.838  -0.000  0.494
    3
step    8
O  -0.000  -0.000  -0.063
H  0.847  0.000  0.502
H  -0.846  -0.000  0.502
    3
step    9
O  -0.000  -0.000  -0.064
H  0.852  0.000  0.509
H  -0.850  -0.000  0.508
    3
step   10
O  -0.000  0.000  -0.065
H  0.851  0.000  0.514
H  -0.848  -0.000  0.512
    3
step   11
O  -0.000  -0.000  -0.065
H  0.845  0.000  0.516
H  -0.840  -0.000  0.513
    3
step   12
O  -0.000  0.000  -0.065
H  0.834  -0.000  0.514
H  -0.828  0.000  0.511
    3
step   13
O  -0.000  -0.000  -0.064
H  0.818  0.000  0.511
H  -0.813  -0.000  0.507
    3
step   14
O  -0.000  0.000  -0.063
H  0.799  -0.000  0.505
H  -0.794  0.000  0.502
    3
step   15
O  -0.000  -0.000  -0.063
H  0.778  -0.000  0.499
H  -0.775  0.000  0.497
    3
step   16
O  -0.000  0.000  -0.062
H  0.758  -0.000  0.493
H  -0.757  0.000  0.492
    3
step   17
O  0.000  -0.000  -0.062
H  0.741  0.000  0.489
H  -0.741  -0.000  0.489
    3
step   18
O  0.000  0.000  -0.062
H  0.728  -0.000  0.488
H  -0.731  0.000  0.490
    3
step   19
O  0.000  -0.000  -0.062
H  0.723  0.000  0.491
H  -0.727  0.000  0.494
    3
step   20
O  0.000  0.000  -0.063
H  0.724  0.000  0.498
H  -0.729  -0.000  0.502
    3
step   21
O  0.000  0.000  -0.064
H  0.731  -0.000  0.509
H  -0.737  0.000  0.513
    3
step   22
O  0.000  -0.000  -0.066
H  0.743  0.000  0.523
H  -0.748  -0.000  0.525
    3
step   23
O  0.000  0.000  -0.068
H  0.758  -0.000  0.536
H  -0.760  0.000  0.538
    3
step   24
O  0.000  0.000  -0.069
H  0.772  -0.000  0.549
H  -0.772  0.000  0.550
    3
step   25
O  -0.000  -0.000  -0.070
H  0.785  -0.000  0.560
H  -0.783  0.000  0.559
    3
step   26
O  -0.000  -0.000  -0.071
H  0.794  0.000  0.567
H  -0.791  -0.000  0.565
    3
step   27
O  -0.000  0.000  -0.072
H  0.801  0.000  0.570
H  -0.796  -0.000  0.568
    3
step   28
O  -0.000  0.000  -0.072
H  0.803  -0.000  0.570
H  -0.797  0.000  0.567
    3
step   29
O  -0.000  0.000  -0.071
H  0.800  -0.000  0.565
H  -0.794  -0.000  0.562
    3
step   30
O  -0.000  -0.000  -0.070
H  0.794  -0.000  0.557
H  -0.788  0.000  0.553
    3
step   31
O  -0.000  0.000  -0.069
H  0.785  -0.000  0.545
H  -0.780  0.000  0.542
    3
step   32
O  -0.000  -0.000  -0.067
H  0.773  -0.000  0.532
H  -0.770  0.000  0.530
    3
step   33
O  -0.000  0.000  -0.065
H  0.761  -0.000  0.517
H  -0.759  -0.000  0.516
    3
step   34
O  0.000  -0.000  -0.063
H  0.750  0.000  0.502
H  -0.750  -0.000  0.503
    3
step   35
O  0.000  0.000  -0.062
H  0.742  -0.000  0.490
H  -0.744  0.000  0.491
    3
step   36
O  0.000  0.000  -0.061
H  0.739  0.000  0.481
H  -0.743  -0.000  0.483
    3
step   37
O  0.000  -0.000  -0.060
H  0.742  0.000  0.475
H  -0.746  0.000  0.478
    3
step   38
O  0.000  0.000  -0.060
H  0.750  -0.000  0.474
H  -0.755  0.000  0.477
    3
step   39
O  0.000  -0.000  -0.060
H  0.764  -0.000  0.477
H  -0.767  0.000  0.479
    3
step   40
O  0.000  -0.000  -0.061
H  0.780  -0.000  0.482
H  -0.782  0.000  0.483
    3
step   41
O  -0.000  -0.000  -0.061
H  0.798  -0.000  0.488
H  -0.798  0.000  0.488
    3
step   42
O  -0.000  0.000  -0.062
H  0.814  0.000  0.494
H  -0.812  -0.000  0.493
    3
step   43
O  -0.000  -0.000  -0.063
H  0.828  -0.000  0.499
H  -0.825  0.000  0.497
    3
step   44
O  -0.000  -0.000  -0.063
H  0.838  0.000  0.502
H  -0.833  -0.000  0.500
    3
step   45
O  -0.000  -0.000  -0.063
H  0.843  0.000  0.504
H  -0.838  -0.000  0.501
    3
step   46
O  -0.000  0.000  -0.063
H  0.843  -0.000  0.503
H  -0.838  0.000  0.500
    3
step   47
O  -0.000  0.000  -0.063
H  0.838  0.000  0.500
H  -0.834  -0.000  0.497
    3
step   48
O  -0.000  -0.000  -0.062
H  0.829  -0.000  0.494
H  -0.826  0.000  0.492
    3
step   49
O  -0.000  -0.000  -0.061
H  0.817  0.000  0.488
H  -0.815  -0.000  0.487
    3
step   50
O  -0.000  -0.000  -0.061
H  0.802  0.000  0.481
H  -0.801  0.000  0.481
    3
step   51
O  0.000  -0.000  -0.060
H  0.787  0.000  0.474
H  -0.788  -0.000  0.475
    3
step   52
O  0.000  0.000  -0.059
H  0.772  -0.000  0.469
H  -0.775  0.000  0.471
    3
step   53
O  0.000  -0.000  -0.059
H  0.761  -0.000  0.466
H  -0.765  0.000  0.469
    3
step   54
O  0.000  0.000  -0.059
H  0.754  -0.000  0.467
H  -0.759  0.000  0.469
    3
step   55
O  0.000  -0.000  -0.060
H  0.753  0.000  0.471
H  -0.757  0.000  0.474
    3
step   56
O  0.000  0.000  -0.060
H  0.756  -0.000  0.479
H  -0.759  0.000  0.481
    3
step   57
O  0.000  0.000  -0.062
H  0.763  -0.000  0.490
H  -0.764  0.000  0.490
    3
step   58
O  -0.000  0.000  -0.063
H  0.772  0.000  0.502
H  -0.772  -0.000  0.502
    3
step   59
O  -0.000  -0.000  -0.065
H  0.782  0.000  0.514
H  -0.780  -0.000  0.513
    3
step   60
O  -0.000  0.000  -0.066
H  0.791  0.000  0.526
H  -0.788  -0.000  0.524
    3
step   61
O  -0.000  -0.000  -0.067
H  0.798  0.000  0.536
H  -0.794  0.000  0.533
    3
step   62
O  -0.000  -0.000  -0.068
H  0.802  0.000  0.543
H  -0.798  -0.000  0.541
    3
step   63
O  -0.000  0.000  -0.069
H  0.802  0.000  0.548
H  -0.798  -0.000  0.545
    3
step   64
O  -0.000  0.000  -0.069
H  0.799  -0.000  0.549
H  -0.795  0.000  0.547
    3
step   65
O  -0.000  0.000  -0.069
H  0.792  -0.000  0.547
H  -0.790  0.000  0.546
    3
step   66
O  -0.000  0.000  -0.068
H  0.783  -0.000  0.543
H  -0.782  0.000  0.542
    3
step   67
O  0.000  -0.000  -0.068
H  0.771  -0.000  0.536
H  -0.772  0.000  0.537
    3
step   68
O  0.000  -0.000  -0.067
H  0.759  -0.000  0.529
H  -0.761  0.000  0.530
    3
step   69
O  0.000  -0.000  -0.066
H  0.747  -0.000  0.520
H  -0.750  0.000  0.522
    3
step   70
O  0.000  0.000  -0.065
H  0.738  -0.000  0.513
H  -0.741  0.000  0.515
    3
step   71
O  0.000  0.000  -0.064
H  0.732  -0.000  0.507
H  -0.736  0.000  0.509
    3
step   72
O  0.000  -0.000  -0.064
H  0.730  -0.000  0.504
H  -0.734  0.000  0.506
    3
step   73
O  0.000  -0.000  -0.064
H  0.734  -0.000  0.503
H  -0.736  0.000  0.505
    3
step   74
O  0.000  -0.000  -0.064
H  0.742  0.000  0.506
H  -0.743  0.000  0.506
    3
step   75
O  -0.000  0.000  -0.064
H  0.753  0.000  0.510
H  -0.752  -0.000  0.509
    3
step   76
O  -0.000  0.000  -0.065
H  0.767  -0.000  0.515
H  -0.764  0.000  0.513
    3
step   77
O  -0.000  -0.000  -0.065
H  0.781  -0.000  0.520
H  -0.777  0.000  0.518
    3
step   78
O  -0.000  -0.000  -0.066
H  0.793  0.000  0.524
H  -0.790  -0.000  0.522
    3
step   79
O  -0.000  0.000  -0.066
H  0.804  0.000  0.526
H  -0.800  -0.000  0.524
    3
step   80
O  -0.000  -0.000  -0.066
H  0.812  0.000  0.527
H  -0.808  -0.000  0.525
    3
step   81
O  -0.000  0.000  -0.066
H  0.816  -0.000  0.525
H  -0.813  -0.000  0.523
    3
step   82
O  -0.000  0.000  -0.066
H  0.816  0.000  0.521
H  -0.814  -0.000  0.519
    3
step   83
O  -0.000  0.000  -0.065
H  0.812  -0.000  0.514
H  -0.812  0.000  0.514
    3
step   84
O  0.000  0.000  -0.064
H  0.806  0.000  0.506
H  -0.807  -0.000  0.506
    3
step   85
O  0.000  0.000  -0.063
H  0.797  0.000  0.496
H  -0.799  -0.000  0.498
    3
step   86
O  0.000  -0.000  -0.061
H  0.787  -0.000  0.487
H  -0.790  0.000  0.489
    3
step   87
O  0.000  0.000  -0.060
H  0.778  0.000  0.478
H  -0.781  0.000  0.480
    3
step   88
O  0.000  -0.000  -0.059
H  0.770  0.000  0.470
H  -0.773  -0.000  0.472
    3
step   89
O  0.000  0.000  -0.059
H  0.765  -0.000  0.466
H  -0.767  0.000  0.467
    3
step   90
O  0.000  0.000  -0.059
H  0.764  0.000  0.464
H  -0.765  -0.000  0.465
    3
step   91
O  0.000  0.000  -0.059
H  0.767  -0.000  0.466
H  -0.767  0.000  0.466
    3
step   92
O  -0.000  -0.000  -0.059
H  0.773  0.000  0.470
H  -0.772  0.000  0.470
    3
step   93
O  -0.000  -0.000  -0.060
H  0.782  0.000  0.477
H  -0.780  0.000  0.476
    3
step   94
O  -0.000  0.000  -0.061
H  0.793  -0.000  0.486
H  -0.789  -0.000  0.484
    3
step   95
O  -0.000  -0.000  -0.062
H  0.803  0.000  0.494
H  -0.799  -0.000  0.492
    3
step   96
O  -0.000  -0.000  -0.063
H  0.811  -0.000  0.503
H  -0.808  0.000  0.501
    3
step   97
O  -0.000  -0.000  -0.064
H  0.817  -0.000  0.510
H  -0.814  0.000  0.508
    3
step   98
O  -0.000  -0.000  -0.065
H  0.819  0.000  0.515
H  -0.817  0.000  0.514
    3
step   99
O  -0.000  0.000  -0.065
H  0.818  0.000  0.518
H  -0.817  -0.000  0.518
    3
step  100
O  0.000  -0.000  -0.065
H  0.813  -0.000  0.519
H  -0.814  0.000  0.520
    3
step  101
O  0.000  -0.000  -0.065
H  0.805  -0.000  0.519
H  -0.807  -0.000  0.520
    3
step  102
O  0.000  0.000  -0.065
H  0.794  0.000  0.516
H  -0.797  -0.000  0.518
    3
step  103
O  0.000  0.000  -0.065
H  0.781  -0.000  0.512
H  -0.785  0.000  0.514
    3
step  104
O  0.000  -0.000  -0.064
H  0.768  -0.000  0.508
H  -0.772  -0.000  0.510
    3
step  105
O  0.000  0.000  -0.064
H  0.755  -0.000  0.504
H  -0.759  0.000  0.506
    3
step  106
O  0.000  -0.000  -0.063
H  0.745  0.000  0.501
H  -0.748  -0.000  0.503
    3
step  107
O  0.000  0.000  -0.063
H  0.738  -0.000  0.500
H  -0.740  0.000  0.501
    3
step  108
O  0.000  -0.000  -0.063
H  0.736  0.000  0.502
H  -0.736  -0.000  0.502
    3
step  109
O  -0.000  0.000  -0.064
H  0.738  -0.000  0.507
H  -0.736  -0.000  0.506
    3
step  110
O  -0.000  0.000  -0.065
H  0.743  -0.000  0.513
H  -0.741  0.000  0.512
    3
step  111
O  -0.000  0.000  -0.066
H  0.752  0.000  0.521
H  -0.748  -0.000  0.519
    3
step  112
O  -0.000  0.000  -0.067
H  0.762  -0.000  0.529
H  -0.758  -0.000  0.527
    3
step  113
O  -0.000  -0.000  -0.068
H  0.772  0.000  0.537
H  -0.769  0.000  0.535
    3
step  114
O  -0.000  -0.000  -0.068
H  0.781  0.000  0.543
H  -0.779  -0.000  0.542
    3
step  115
O  -0.000  -0.000  -0.069
H  0.788  0.000  0.548
H  -0.787  0.000  0.547
    3
step  116
O  -0.000  0.000  -0.069
H  0.793  -0.000  0.549
H  -0.793  0.000  0.549
    3
step  117
O  0.000  0.000  -0.069
H  0.794  0.000  0.548
H  -0.796  -0.000  0.548
    3
step  118
O  0.000  0.000  -0.069
H  0.793  -0.000  0.544
H  -0.795  0.000  0.545
    3
step  119
O  0.000  -0.000  -0.068
H  0.789  0.000  0.537
H  -0.792  -0.000  0.539
    3
step  120
O  0.000  -0.000  -0.067
H  0.782  0.000  0.528
H  -0.786  0.000  0.530
    3
step  121
O  0.000  -0.000  -0.065
H  0.774  -0.000  0.518
H  -0.778  0.000  0.520
    3
step  122
O  0.000  0.000  -0.064
H  0.766  -0.000  0.507
H  -0.770  0.000  0.509
    3
step  123
O  0.000  0.000  -0.063
H  0.759  0.000  0.497
H  -0.762  -0.000  0.498
    3
step  124
O  0.000  0.000  -0.062
H  0.754  0.000  0.488
H  -0.755  -0.000  0.489
    3
step  125
O  -0.000  0.000  -0.061
H  0.753  0.000  0.482
H  -0.752  -0.000  0.481
    3
step  126
O  -0.000  0.000  -0.060
H  0.755  0.000  0.478
H  -0.754  -0.000  0.477
    3
step  127
O  -0.000  0.000  -0.060
H  0.762  -0.000  0.477
H  -0.759  0.000  0.475
    3
step  128
O  -0.000  0.000  -0.060
H  0.772  -0.000  0.479
H  -0.768  0.000  0.477
    3
step  129
O  -0.000  -0.000  -0.061
H  0.784  -0.000  0.483
H  -0.780  0.000  0.480
    3
step  130
O  -0.000  0.000  -0.061
H  0.796  0.000  0.487
H  -0.793  -0.000  0.486
    3
step  131
O  -0.000  -0.000  -0.062
H  0.809  -0.000  0.492
H  -0.807  0.000  0.491
    3
step  132
O  -0.000  -0.000  -0.063
H  0.819  0.000  0.497
H  -0.818  -0.000  0.496
    3
step  133
O  0.000  -0.000  -0.063
H  0.826  -0.000  0.500
H  -0.827  0.000  0.500
    3
step  134
O  0.000  0.000  -0.063
H  0.830  -0.000  0.501
H  -0.832  0.000  0.503
    3
step  135
O  0.000  0.000  -0.063
H  0.830  0.000  0.501
H  -0.833  -0.000  0.503
    3
step  136
O  0.000  0.000  -0.063
H  0.826  -0.000  0.499
H  -0.830  0.000  0.502
    3
step  137
O  0.000  0.000  -0.063
H  0.818  0.000  0.496
H  -0.823  -0.000  0.499
    3
step  138
O  0.000  0.000  -0.062
H  0.808  -0.000  0.491
H  -0.812  -0.000  0.494
    3
step  139
O  0.000  -0.000  -0.061
H  0.796  -0.000  0.486
H  -0.799  0.000  0.489
    3
step  140
O  0.000  -0.000  -0.061
H  0.783  0.000  0.482
H  -0.785  0.000  0.483
    3
step  141
O  0.000  0.000  -0.060
H  0.771  -0.000  0.478
H  -0.772  0.000  0.479
    3
step  142
O  -0.000  0.000  -0.060
H  0.761  0.000  0.476
H  -0.761  -0.000  0.476
    3
step  143
O  -0.000  -0.000  -0.060
H  0.755  0.000  0.477
H  -0.753  0.000  0.476
    3
step  144
O  -0.000  -0.000  -0.061
H  0.753  0.000  0.481
H  -0.750  -0.000  0.479
    3
step  145
O  -0.000  -0.000  -0.061
H  0.754  0.000  0.488
H  -0.751  0.000  0.486
    3
step  146
O  -0.000  0.000  -0.063
H  0.759  -0.000  0.497
H  -0.756  0.000  0.495
    3
step  147
O  -0.000  -0.000  -0.064
H  0.767  0.000  0.508
H  -0.764  0.000  0.506
    3
step  148
O  -0.000  0.000  -0.065
H  0.775  0.000  0.519
H  -0.774  -0.000  0.518
    3
step  149
O  0.000  0.000  -0.067
H  0.783  0.000  0.530
H  -0.783  -0.000  0.530
    3
step  150
O  0.000  -0.000  -0.068
H  0.789  0.000  0.539
H  -0.791  -0.000  0.540
    3
step  151
O  0.000  -0.000  -0.069
H  0.793  -0.000  0.546
H  -0.796  0.000  0.548
    3
step  152
O  0.000  0.000  -0.069
H  0.794  0.000  0.550
H  -0.798  -0.000  0.553
    3
step  153
O  0.000  0.000  -0.070
H  0.792  -0.000  0.552
H  -0.797  0.000  0.555
    3
step  154
O  0.000  0.000  -0.070
H  0.787  -0.000  0.550
H  -0.792  -0.000  0.553
    3
step  155
O  0.000  0.000  -0.069
H  0.780  -0.000  0.546
H  -0.785  -0.000  0.549
    3
step  156
O  0.000  -0.000  -0.068
H  0.770  0.000  0.540
H  -0.774  0.000  0.542
    3
step  157
O  0.000  -0.000  -0.067
H  0.760  0.000  0.532
H  -0.762  0.000  0.533
    3
step  158
O  0.000  0.000  -0.066
H  0.749  0.000  0.523
H  -0.750  -0.000  0.524
    3
step  159
O  -0.000  -0.000  -0.065
H  0.741  -0.000  0.515
H  -0.740  0.000  0.514
    3
step  160
O  -0.000  0.000  -0.064
H  0.735  -0.000  0.508
H  -0.732  0.000  0.506
    3
step  161
O  -0.000  -0.000  -0.063
H  0.733  0.000  0.503
H  -0.729  -0.000  0.501
    3
step  162
O  -0.000  -0.000  -0.063
H  0.736  -0.000  0.501
H  -0.732  0.000  0.498
    3
step  163
O  -0.000  0.000  -0.063
H  0.743  0.000  0.501
H  -0.739  -0.000  0.499
    3
step  164
O  -0.000  0.000  -0.063
H  0.754  0.000  0.504
H  -0.751  -0.000  0.502
    3
step  165
O  -0.000  0.000  -0.064
H  0.768  -0.000  0.508
H  -0.766  -0.000  0.507
    3
step  166
O  0.000  -0.000  -0.065
H  0.782  -0.000  0.512
H  -0.782  0.000  0.512
    3
step  167
O  0.000  0.000  -0.065
H  0.796  -0.000  0.516
H  -0.798  0.000  0.517
    3
step  168
O  0.000  -0.000  -0.065
H  0.808  -0.000  0.519
H  -0.811  0.000  0.521
    3
step  169
O  0.000  -0.000  -0.066
H  0.817  0.000  0.519
H  -0.821  -0.000  0.522
    3
step  170
O  0.000  0.000  -0.065
H  0.822  0.000  0.518
H  -0.827  -0.000  0.521
    3
step  171
O  0.000  -0.000  -0.065
H  0.824  0.000  0.515
H  -0.829  -0.000  0.518
    3
step  172
O  0.000  -0.000  -0.064
H  0.822  0.000  0.509
H  -0.827  0.000  0.512
    3
step  173
O  0.000  0.000  -0.063
H  0.816  -0.000  0.502
H  -0.820  0.000  0.504
    3
step  174
O  0.000  -0.000  -0.062
H  0.808  0.000  0.493
H  -0.810  0.000  0.494
    3
step  175
O  0.000  0.000  -0.061
H  0.797  -0.000  0.483
H  -0.798  -0.000  0.484
    3
step  176
O  -0.000  -0.000  -0.060
H  0.786  0.000  0.474
H  -0.785  0.000  0.473
    3
step  177
O  -0.000  0.000  -0.059
H  0.776  0.000  0.466
H  -0.773  -0.000  0.464
    3
step  178
O  -0.000  0.000  -0.058
H  0.768  0.000  0.461
H  -0.765  -0.000  0.458
    3
step  179
O  -0.000  0.000  -0.058
H  0.764  0.000  0.458
H  -0.760  -0.000  0.456
    3
step  180
O  -0.000  -0.000  -0.058
H  0.765  -0.000  0.459
H  -0.761  0.000  0.457
    3
step  181
O  -0.000  0.000  -0.058
H  0.769  -0.000  0.464
H  -0.767  0.000  0.463
    3
step  182
O  -0.000  0.000  -0.059
H  0.777  -0.000  0.472
H  -0.777  0.000  0.471
    3
step  183
O  0.000  -0.000  -0.061
H  0.787  -0.000  0.481
H  -0.789  0.000  0.482
    3
step  184
O  0.000  0.000  -0.062
H  0.798  -0.000  0.492
H  -0.801  -0.000  0.494
    3
step  185
O  0.000  0.000  -0.063
H  0.808  -0.000  0.502
H  -0.812  -0.000  0.505
    3
step  186
O  0.000  0.000  -0.065
H  0.815  0.000  0.512
H  -0.821  -0.000  0.515
    3
step  187
O  0.000  0.000  -0.066
H  0.820  -0.000  0.520
H  -0.826  0.000  0.523
    3
step  188
O  0.000  -0.000  -0.066
H  0.820  0.000  0.525
H  -0.826  0.000  0.529
    3
step  189
O  0.000  0.000  -0.067
H  0.817  -0.000  0.529
H  -0.822  0.000  0.532
    3
step  190
O  0.000  -0.000  -0.067
H  0.809  0.000  0.529
H  -0.814  -0.000  0.532
    3
step  191
O  0.000  0.000  -0.067
H  0.799  -0.000  0.528
H  -0.801  0.000  0.529
    3
step  192
O  0.000  -0.000  -0.066
H  0.785  0.000  0.524
H  -0.786  -0.000  0.524
    3
step  193
O  -0.000  0.000  -0.065
H  0.770  -0.000  0.519
H  -0.770  -0.000  0.518
    3
step  194
O  -0.000  -0.000  -0.065
H  0.755  -0.000  0.513
H  -0.753  0.000  0.512
    3
step  195
O  -0.000  -0.000  -0.064
H  0.742  -0.000  0.508
H  -0.738  0.000  0.506
    3
step  196
O  -0.000  -0.000  -0.064
H  0.731  -0.000  0.505
H  -0.727  0.000  0.503
    3
step  197
O  -0.000  -0.000  -0.063
H  0.726  -0.000  0.505
H  -0.722  0.000  0.503
    3
step  198
O  -0.000  -0.000  -0.064
H  0.725  -0.000  0.507
H  -0.722  0.000  0.506
    3
step  199
O  -0.000  0.000  -0.065
H  0.730  -0.000  0.513
H  -0.729  -0.000  0.512
    3
step  200
O  0.000  -0.000  -0.066
H  0.738  0.000  0.520
H  -0.740  0.000  0.521
    3
step  201
O  0.000  0.000  -0.067
H  0.750  0.000  0.529
H  -0.753  -0.000  0.531
    3
step  202
O  0.000  -0.000  -0.068
H  0.763  0.000  0.538
H  -0.768  0.000  0.541
    3
step  203
O  0.000  -0.000  -0.069
H  0.776  0.000  0.546
H  -0.782  -0.000  0.549
    3
step  204
O  0.000  0.000  -0.070
H  0.788  -0.000  0.551
H  -0.793  0.000  0.555
    3
step  205
O  0.000  -0.000  -0.070
H  0.797  0.000  0.554
H  -0.802  -0.000  0.557
    3
step  206
O  0.000  0.000  -0.070
H  0.802  0.000  0.554
H  -0.807  -0.000  0.557
    3
step  207
O  0.000  0.000  -0.069
H  0.804  -0.000  0.550
H  -0.807  -0.000  0.552
    3
step  208
O  0.000  0.000  -0.069
H  0.802  0.000  0.544
H  -0.804  -0.000  0.545
    3
step  209
O  0.000  -0.000  -0.067
H  0.797  0.000  0.534
H  -0.797  -0.000  0.534
    3
step  210
O  -0.000  0.000  -0.066
H  0.789  -0.000  0.522
H  -0.787  0.000  0.521
    3
step  211
O  -0.000  -0.000  -0.064
H  0.779  -0.000  0.509
H  -0.776  0.000  0.507
    3
step  212
O  -0.000  0.000  -0.062
H  0.769  0.000  0.495
H  -0.765  0.000  0.493
    3
step  213
O  -0.000  0.000  -0.061
H  0.761  -0.000  0.483
H  -0.756  0.000  0.480
    3
step  214
O  -0.000  0.000  -0.059
H  0.755  0.000  0.473
H  -0.751  -0.000  0.470
    3
step  215
O  -0.000  0.000  -0.059
H  0.754  -0.000  0.466
H  -0.751  -0.000  0.464
    3
step  216
O  -0.000  -0.000  -0.058
H  0.758  -0.000  0.462
H  -0.756  0.000  0.462
    3
step  217
O  0.000  0.000  -0.058
H  0.766  -0.000  0.463
H  -0.767  -0.000  0.463
    3
step  218
O  0.000  -0.000  -0.059
H  0.779  -0.000  0.467
H  -0.782  0.000  0.468
    3
step  219
O  0.000  -0.000  -0.060
H  0.794  -0.000  0.473
H  -0.799  0.000  0.475
    3
step  220
O  0.000  -0.000  -0.061
H  0.809  0.000  0.480
H  -0.815  -0.000  0.483
    3
step  221
O  0.000  -0.000  -0.062
H  0.824  -0.000  0.487
H  -0.829  0.000  0.490
    3
step  222
O  0.000  -0.000  -0.062
H  0.835  -0.000  0.493
H  -0.840  0.000  0.496
    3
step  223
O  0.000  -0.000  -0.063
H  0.842  0.000  0.498
H  -0.847  0.000  0.501
    3
step  224
O  0.000  -0.000  -0.063
H  0.845  0.000  0.501
H  -0.849  0.000  0.503
    3
step  225
O  0.000  -0.000  -0.063
H  0.843  -0.000  0.501
H  -0.845  0.000  0.502
    3
step  226
O  0.000  0.000  -0.063
H  0.836  -0.000  0.500
H  -0.837  0.000  0.500
    3
step  227
O  -0.000  0.000  -0.063
H  0.825  0.000  0.497
H  -0.824  -0.000  0.496
    3
step  228
O  -0.000  -0.000  -0.062
H  0.811  0.000  0.492
H  -0.808  0.000  0.490
    3
step  229
O  -0.000  0.000  -0.061
H  0.794  0.000  0.486
H  -0.790  -0.000  0.484
    3
step  230
O  -0.000  0.000  -0.061
H  0.777  -0.000  0.481
H  -0.773  0.000  0.479
    3
step  231
O  -0.000  0.000  -0.060
H  0.761  -0.000  0.478
H  -0.757  0.000  0.476
    3
step  232
O  -0.000  0.000  -0.060
H  0.748  -0.000  0.476
H  -0.746  0.000  0.475
    3
step  233
O  -0.000  0.000  -0.060
H  0.740  -0.000  0.479
H  -0.740  0.000  0.479
    3
step  234
O  0.000  -0.000  -0.061
H  0.738  -0.000  0.485
H  -0.740  0.000  0.486
    3
step  235
O  0.000  0.000  -0.062
H  0.741  -0.000  0.495
H  -0.745  -0.000  0.497
    3
step  236
O  0.000  0.000  -0.064
H  0.749  -0.000  0.507
H  -0.754  -0.000  0.510
    3
step  237
O  0.000  0.000  -0.066
H  0.759  -0.000  0.521
H  -0.765  -0.000  0.525
    3
step  238
O  0.000  -0.000  -0.068
H  0.771  0.000  0.535
H  -0.777  0.000  0.539
    3
step  239
O  0.000  0.000  -0.069
H  0.781  -0.000  0.548
H  -0.787  0.000  0.551
    3
step  240
O  0.000  -0.000  -0.070
H  0.790  -0.000  0.558
H  -0.794  0.000  0.561
    3
step  241
O  0.000  0.000  -0.071
H  0.795  -0.000  0.565
H  -0.798  0.000  0.567
    3
step  242
O  0.000  0.000  -0.072
H  0.797  0.000  0.569
H  -0.798  -0.000  0.569
    3
step  243
O  -0.000  0.000  -0.072
H  0.795  0.000  0.568
H  -0.794  -0.000  0.568
    3
step  244
O  -0.000  0.000  -0.071
H  0.789  -0.000  0.564
H  -0.787  0.000  0.563
    3
step  245
O  -0.000  0.000  -0.070
H  0.780  -0.000  0.557
H  -0.777  -0.000  0.555
    3
step  246
O  -0.000  0.000  -0.069
H  0.769  -0.000  0.546
H  -0.765  -0.000  0.544
    3
step  247
O  -0.000  0.000  -0.067
H  0.756  -0.000  0.534
H  -0.752  -0.000  0.532
    3
step  248
O  -0.000  0.000  -0.066
H  0.744  -0.000  0.521
H  -0.740  -0.000  0.519
    3
step  249
O  -0.000  -0.000  -0.064
H  0.734  0.000  0.509
H  -0.731  0.000  0.507
    3
step  250
O  -0.000  0.000  -0.063
H  0.728  -0.000  0.499
H  -0.727  0.000  0.498
    3
step  251
O  0.000  0.000  -0.062
H  0.728  -0.000  0.493
H  -0.728  0.000  0.493
    3
step  252
O  0.000  -0.000  -0.062
H  0.733  0.000  0.490
H  -0.736  0.000  0.491
    3
step  253
O  0.000  -0.000  -0.062
H  0.745  0.000  0.491
H  -0.749  0.000  0.493
    3
step  254
O  0.000  -0.000  -0.062
H  0.761  -0.000  0.494
H  -0.765  0.000  0.497
    3
step  255
O  0.000  -0.000  -0.063
H  0.779  0.000  0.500
H  -0.783  -0.000  0.502
    3
step  256
O  0.000  -0.000  -0.064
H  0.798  0.000  0.505
H  -0.801  0.000  0.507
    3
step  257
O  0.000  -0.000  -0.064
H  0.815  0.000  0.510
H  -0.817  0.000  0.512
    3
step  258
O  0.000  0.000  -0.065
H  0.828  0.000  0.513
H  -0.830  -0.000  0.514
    3
step  259
O  -0.000  -0.000  -0.065
H  0.838  0.000  0.514
H  -0.838  -0.000  0.514
    3
step  260
O  -0.000  -0.000  -0.065
H  0.843  0.000  0.513
H  -0.841  0.000  0.512
    3
step  261
O  -0.000  0.000  -0.064
H  0.843  0.000  0.509
H  -0.840  -0.000  0.507
    3
step  262
O  -0.000  0.000  -0.063
H  0.837  0.000  0.502
H  -0.834  -0.000  0.500
    3
step  263
O  -0.000  -0.000  -0.062
H  0.828  0.000  0.494
H  -0.824  0.000  0.491
    3
step  264
O  -0.000  0.000  -0.061
H  0.814  0.000  0.484
H  -0.810  -0.000  0.482
    3
step  265
O  -0.000  -0.000  -0.060
H  0.799  0.000  0.474
H  -0.796  -0.000  0.472
    3
step  266
O  -0.000  -0.000  -0.058
H  0.784  0.000  0.464
H  -0.782  0.000  0.463
    3
step  267
O  -0.000  -0.000  -0.058
H  0.770  0.000  0.457
H  -0.770  -0.000  0.457
    3
step  268
O  0.000  -0.000  -0.057
H  0.760  0.000  0.453
H  -0.762  0.000  0.454
    3
step  269
O  0.000  0.000  -0.057
H  0.756  -0.000  0.453
H  -0.759  0.000  0.455
    3
step  270
O  0.000  -0.000  -0.058
H  0.758  0.000  0.458
H  -0.762  -0.000  0.461
    3
step  271
O  0.000  0.000  -0.059
H  0.764  0.000  0.467
H  -0.769  -0.000  0.470
    3
step  272
O  0.000  -0.000  -0.061
H  0.775  0.000  0.479
H  -0.780  0.000  0.482
    3
step  273
O  0.000  0.000  -0.062
H  0.787  -0.000  0.492
H  -0.791  0.000  0.495
    3
step  274
O  0.000  0.000  -0.064
H  0.799  -0.000  0.506
H  -0.802  -0.000  0.507
    3
step  275
O  0.000  0.000  -0.065
H  0.809  -0.000  0.519
H  -0.811  -0.000  0.519
    3
step  276
O  -0.000  0.000  -0.067
H  0.817  -0.000  0.529
H  -0.816  -0.000  0.529
    3
step  277
O  -0.000  -0.000  -0.068
H  0.819  0.000  0.537
H  -0.818  -0.000  0.537
    3
step  278
O  -0.000  -0.000  -0.068
H  0.818  0.000  0.542
H  -0.816  -0.000  0.541
    3
step  279
O  -0.000  -0.000  -0.068
H  0.812  0.000  0.544
H  -0.809  0.000  0.542
    3
step  280
O  -0.000  0.000  -0.068
H  0.802  0.000  0.542
H  -0.799  -0.000  0.540
    3
step  281
O  -0.000  0.000  -0.068
H  0.789  0.000  0.538
H  -0.786  -0.000  0.536
    3
step  282
O  -0.000  -0.000  -0.067
H  0.773  0.000  0.532
H  -0.771  0.000  0.530
    3
step  283
O  -0.000  -0.000  -0.066
H  0.757  -0.000  0.524
H  -0.756  0.000  0.523
    3
step  284
O  0.000  -0.000  -0.065
H  0.742  0.000  0.516
H  -0.742  -0.000  0.517
    3
step  285
O  0.000  0.000  -0.064
H  0.729  -0.000  0.510
H  -0.731  -0.000  0.511
    3
step  286
O  0.000  -0.000  -0.064
H  0.722  -0.000  0.506
H  -0.724  0.000  0.508
    3
step  287
O  0.000  -0.000  -0.064
H  0.720  0.000  0.506
H  -0.723  0.000  0.508
    3
step  288
O  0.000  -0.000  -0.064
H  0.724  0.000  0.509
H  -0.727  0.000  0.511
    3
step  289
O  0.000  -0.000  -0.065
H  0.733  0.000  0.514
H  -0.736  -0.000  0.516
    3
step  290
O  0.000  -0.000  -0.066
H  0.746  0.000  0.522
H  -0.748  0.000  0.523
    3
step  291
O  0.000  0.000  -0.067
H  0.761  0.000  0.530
H  -0.762  -0.000  0.530
    3
step  292
O  -0.000  -0.000  -0.068
H  0.776  0.000  0.537
H  -0.775  -0.000  0.537
    3
step  293
O  -0.000  -0.000  -0.068
H  0.789  0.000  0.543
H  -0.788  0.000  0.542
    3
step  294
O  -0.000  -0.000  -0.069
H  0.800  0.000  0.546
H  -0.797  -0.000  0.545
    3
step  295
O  -0.000  0.000  -0.069
H  0.807  -0.000  0.547
H  -0.804  -0.000  0.545
    3
step  296
O  -0.000  -0.000  -0.068
H  0.811  0.000  0.544
H  -0.807  0.000  0.542
    3
step  297
O  -0.000  0.000  -0.068
H  0.810  -0.000  0.538
H  -0.806  -0.000  0.536
    3
step  298
O  -0.000  -0.000  -0.067
H  0.805  0.000  0.529
H  -0.802  0.000  0.528
    3
step  299
O  -0.000  -0.000  -0.065
H  0.797  0.000  0.519
H  -0.795  -0.000  0.517
    3
step  300
O  -0.000  0.000  -0.064
H  0.788  0.000  0.507
H  -0.786  0.000  0.506
    3
step  301
O  -0.000  0.000  -0.062
H  0.777  -0.000  0.494
H  -0.777  -0.000  0.494
    3
step  302
O  0.000  0.000  -0.061
H  0.767  0.000  0.483
H  -0.768  -0.000  0.484
    3
step  303
O  0.000  0.000  -0.060
H  0.760  -0.000  0.474
H  -0.762  -0.000  0.475
    3
step  304
O  0.000  -0.000  -0.059
H  0.757  0.000  0.467
H  -0.759  0.000  0.469
    3
step  305
O  0.000  -0.000  -0.059
H  0.758  0.000  0.464
H  -0.761  0.000  0.466
    3
step  306
O  0.000  -0.000  -0.059
H  0.764  0.000  0.465
H  -0.767  0.000  0.467
    3
step  307
O  0.000  0.000  -0.059
H  0.774  -0.000  0.470
H  -0.776  -0.000  0.471
    3
step  308
O  0.000  0.000  -0.060
H  0.787  0.000  0.476
H  -0.787  -0.000  0.476
    3
step  309
O  -0.000  0.000  -0.061
H  0.799  -0.000  0.484
H  -0.799  -0.000  0.483
    3
step  310
O  -0.000  -0.000  -0.062
H  0.812  0.000  0.492
H  -0.810  0.000  0.491
    3
step  311
O  -0.000  -0.000  -0.063
H  0.821  0.000  0.499
H  -0.819  -0.000  0.497
    3
step  312
O  -0.000  -0.000  -0.063
H  0.828  0.000  0.504
H  -0.825  0.000  0.503
    3
step  313
O  -0.000  0.000  -0.064
H  0.830  0.000  0.508
H  -0.827  -0.000  0.506
    3
step  314
O  -0.000  0.000  -0.064
H  0.828  -0.000  0.509
H  -0.826  -0.000  0.508
    3
step  315
O  -0.000  0.000  -0.064
H  0.822  -0.000  0.509
H  -0.820  -0.000  0.508
    3
step  316
O  -0.000  0.000  -0.064
H  0.813  -0.000  0.507
H  -0.812  -0.000  0.506
    3
step  317
O  0.000  0.000  -0.063
H  0.800  -0.000  0.503
H  -0.800  -0.000  0.503
    3
step  318
O  0.000  0.000  -0.063
H  0.786  -0.000  0.498
H  -0.788  -0.000  0.499
    3
step  319
O  0.000  -0.000  -0.062
H  0.772  0.000  0.494
H  -0.774  0.000  0.495
    3
step  320
O  0.000  0.000  -0.062
H  0.759  0.000  0.490
H  -0.762  -0.000  0.492
    3
step  321
O  0.000  0.000  -0.062
H  0.749  -0.000  0.489
H  -0.752  -0.000  0.491
    3
step  322
O  0.000  0.000  -0.062
H  0.743  -0.000  0.490
H  -0.746  -0.000  0.492
    3
step  323
O  0.000  -0.000  -0.062
H  0.741  0.000  0.494
H  -0.744  0.000  0.495
    3
step  324
O  0.000  0.000  -0.063
H  0.744  0.000  0.501
H  -0.746  -0.000  0.502
    3
step  325
O  0.000  0.000  -0.064
H  0.750  -0.000  0.510
H  -0.751  0.000  0.510
    3
step  326
O  -0.000  -0.000  -0.065
H  0.759  0.000  0.519
H  -0.758  0.000  0.519
    3
step  327
O  -0.000  0.000  -0.067
H  0.768  -0.000  0.529
H  -0.767  -0.000  0.528
    3
step  328
O  -0.000  0.000  -0.068
H  0.777  -0.000  0.538
H  -0.775  -0.000  0.537
    3
step  329
O  -0.000  -0.000  -0.069
H  0.784  -0.000  0.545
H  -0.782  0.000  0.544
    3
step  330
O  -0.000  0.000  -0.069
H  0.789  -0.000  0.550
H  -0.787  0.000  0.549
    3
step  331
O  -0.000  0.000  -0.069
H  0.791  -0.000  0.552
H  -0.789  -0.000  0.551
    3
step  332
O  -0.000  0.000  -0.069
H  0.790  -0.000  0.551
H  -0.789  -0.000  0.550
    3
step  333
O  -0.000  -0.000  -0.069
H  0.786  0.000  0.547
H  -0.786  0.000  0.546
    3
step  334
O  0.000  -0.000  -0.068
H  0.780  -0.000  0.541
H  -0.780  0.000  0.541
    3
step  335
O  0.000  0.000  -0.067
H  0.772  -0.000  0.532
H  -0.773  -0.000  0.533
    3
step  336
O  0.000  0.000  -0.066
H  0.763  0.000  0.523
H  -0.765  0.000  0.524
    3
step  337
O  0.000  0.000  -0.065
H  0.755  -0.000  0.513
H  -0.757  0.000  0.514
    3
step  338
O  0.000  0.000  -0.064
H  0.748  -0.000  0.504
H  -0.750  -0.000  0.506
    3
step  339
O  0.000  0.000  -0.063
H  0.745  -0.000  0.497
H  -0.747  -0.000  0.498
    3
step  340
O  0.000  0.000  -0.062
H  0.745  -0.000  0.492
H  -0.746  -0.000  0.493
    3
step  341
O  0.000  -0.000  -0.062
H  0.749  0.000  0.490
H  -0.750  0.000  0.491
    3
step  342
O  -0.000  0.000  -0.062
H  0.757  -0.000  0.491
H  -0.757  -0.000  0.491
    3
step  343
O  -0.000  -0.000  -0.062
H  0.768  0.000  0.493
H  -0.767  0.000  0.493
    3
step  344
O  -0.000  -0.000  -0.063
H  0.781  0.000  0.497
H  -0.779  -0.000  0.496
    3
step  345
O  -0.000  0.000  -0.063
H  0.793  -0.000  0.501
H  -0.791  -0.000  0.500
    3
step  346
O  -0.000  -0.000  -0.064
H  0.805  0.000  0.505
H  -0.802  0.000  0.503
    3
step  347
O  -0.000  0.000  -0.064
H  0.814  -0.000  0.507
H  -0.811  -0.000  0.506
    3
step  348
O  -0.000  0.000  -0.064
H  0.820  -0.000  0.508
H  -0.818  -0.000  0.507
    3
step  349
O  -0.000  -0.000  -0.064
H  0.822  0.000  0.508
H  -0.821  0.000  0.507
    3
step  350
O  -0.000  -0.000  -0.064
H  0.821  0.000  0.505
H  -0.821  0.000  0.505
    3
step  351
O  0.000  -0.000  -0.063
H  0.817  0.000  0.501
H  -0.818  0.000  0.501
    3
step  352
O  0.000  0.000  -0.063
H  0.809  -0.000  0.496
H  -0.811  -0.000  0.496
    3
step  353
O  0.000  -0.000  -0.062
H  0.800  0.000  0.489
H  -0.802  0.000  0.491
    3
step  354
O  0.000  0.000  -0.061
H  0.789  -0.000  0.483
H  -0.792  -0.000  0.485
    3
step  355
O  0.000  0.000  -0.060
H  0.779  -0.000  0.478
H  -0.781  -0.000  0.479
    3
step  356
O  0.000  0.000  -0.060
H  0.770  -0.000  0.474
H  -0.772  -0.000  0.475
    3
step  357
O  0.000  -0.000  -0.060
H  0.764  -0.000  0.472
H  -0.765  0.000  0.473
    3
step  358
O  0.000  0.000  -0.060
H  0.761  -0.000  0.473
H  -0.762  -0.000  0.474
    3
step  359
O  -0.000  0.000  -0.060
H  0.762  -0.000  0.477
H  -0.762  -0.000  0.477
    3
step  360
O  -0.000  -0.000  -0.061
H  0.766  0.000  0.484
H  -0.765  0.000  0.483
    3
step  361
O  -0.000  -0.000  -0.062
H  0.773  0.000  0.492
H  -0.771  0.000  0.491
    3
step  362
O  -0.000  -0.000  -0.063
H  0.780  0.000  0.502
H  -0.778  -0.000  0.501
    3
step  363
O  -0.000  0.000  -0.064
H  0.788  0.000  0.512
H  -0.786  -0.000  0.510
    3
step  364
O  -0.000  -0.000  -0.066
H  0.794  -0.000  0.520
H  -0.793  0.000  0.520
    3
step  365
O  -0.000  0.000  -0.066
H  0.799  -0.000  0.528
H  -0.798  -0.000  0.527
    3
step  366
O  -0.000  -0.000  -0.067
H  0.800  -0.000  0.533
H  -0.800  -0.000  0.533
    3
step  367
O  0.000  -0.000  -0.068
H  0.799  0.000  0.536
H  -0.800  0.000  0.537
    3
step  368
O  0.000  0.000  -0.068
H  0.795  -0.000  0.537
H  -0.796  0.000  0.538
    3
step  369
O  0.000  -0.000  -0.068
H  0.788  0.000  0.535
H  -0.790  0.000  0.537
    3
step  370
O  0.000  0.000  -0.067
H  0.778  -0.000  0.532
H  -0.781  -0.000  0.533
    3
step  371
O  0.000  -0.000  -0.066
H  0.768  -0.000  0.527
H  -0.771  -0.000  0.528
    3
step  372
O  0.000  0.000  -0.066
H  0.757  -0.000  0.521
H  -0.760  -0.000  0.523
    3
step  373
O  0.000  0.000  -0.065
H  0.747  -0.000  0.515
H  -0.749  -0.000  0.517
    3
step  374
O  0.000  0.000  -0.064
H  0.740  -0.000  0.511
H  -0.741  -0.000  0.511
    3
step  375
O  0.000  -0.000  -0.064
H  0.736  0.000  0.508
H  -0.736  0.000  0.508
    3
step  376
O  -0.000  0.000  -0.064
H  0.736  -0.000  0.507
H  -0.735  -0.000  0.506
    3
step  377
O  -0.000  -0.000  -0.064
H  0.739  0.000  0.508
H  -0.738  0.000  0.507
    3
step  378
O  -0.000  -0.000  -0.064
H  0.747  0.000  0.512
H  -0.744  0.000  0.510
    3
step  379
O  -0.000  -0.000  -0.065
H  0.757  0.000  0.516
H  -0.754  0.000  0.515
    3
step  380
O  -0.000  0.000  -0.066
H  0.768  -0.000  0.521
H  -0.766  -0.000  0.520
    3
step  381
O  -0.000  -0.000  -0.066
H  0.779  0.000  0.526
H  -0.777  0.000  0.525
    3
step  382
O  -0.000  0.000  -0.067
H  0.790  -0.000  0.530
H  -0.789  -0.000  0.529
    3
step  383
O  -0.000  -0.000  -0.067
H  0.798  0.000  0.531
H  -0.798  -0.000  0.531
    3
step  384
O  0.000  -0.000  -0.067
H  0.804  0.000  0.531
H  -0.804  0.000  0.532
    3
step  385
O  0.000  0.000  -0.067
H  0.806  -0.000  0.529
H  -0.808  -0.000  0.530
    3
step  386
O  0.000  0.000  -0.066
H  0.806  -0.000  0.524
H  -0.808  -0.000  0.525
    3
step  387
O  0.000  -0.000  -0.065
H  0.802  0.000  0.517
H  -0.805  0.000  0.519
    3
step  388
O  0.000  -0.000  -0.064
H  0.796  0.000  0.509
H  -0.799  0.000  0.510
    3
step  389
O  0.000  0.000  -0.063
H  0.788  -0.000  0.499
H  -0.791  -0.000  0.501
    3
step  390
O  0.000  -0.000  -0.062
H  0.780  0.000  0.490
H  -0.782  0.000  0.491
    3
step  391
O  0.000  -0.000  -0.061
H  0.772  0.000  0.481
H  -0.773  0.000  0.481
    3
step  392
O  -0.000  -0.000  -0.060
H  0.767  0.000  0.474
H  -0.766  0.000  0.474
    3
step  393
O  -0.000  -0.000  -0.059
H  0.764  0.000  0.469
H  -0.762  0.000  0.469
    3
step  394
O  -0.000  -0.000  -0.059
H  0.765  0.000  0.468
H  -0.762  0.000  0.466
    3
step  395
O  -0.000  -0.000  -0.059
H  0.769  0.000  0.469
H  -0.766  0.000  0.467
    3
step  396
O  -0.000  0.000  -0.060
H  0.777  -0.000  0.473
H  -0.774  0.000  0.471
    3
step  397
O  -0.000  -0.000  -0.060
H  0.786  0.000  0.479
H  -0.784  0.000  0.478
    3
step  398
O  -0.000  -0.000  -0.061
H  0.797  0.000  0.486
H  -0.796  0.000  0.485
    3
step  399
O  -0.000  0.000  -0.062
H  0.806  -0.000  0.494
H  -0.806  -0.000  0.494
    3
step  400
O  0.000  0.000  -0.063
H  0.815  -0.000  0.501
H  -0.816  -0.000  0.501
    3
step  401
O  0.000  -0.000  -0.064
H  0.820  0.000  0.506
H  -0.822  0.000  0.508
    3
step  402
O  0.000  0.000  -0.064
H  0.822  0.000  0.511
H  -0.825  -0.000  0.513
    3
step  403
O  0.000  -0.000  -0.065
H  0.821  0.000  0.513
H  -0.824  0.000  0.515
    3
step  404
O  0.000  0.000  -0.065
H  0.815  -0.000  0.514
H  -0.819  -0.000  0.516
    3
step  405
O  0.000  -0.000  -0.065
H  0.807  0.000  0.512
H  -0.811  0.000  0.515
    3
step  406
O  0.000  0.000  -0.064
H  0.795  -0.000  0.510
H  -0.799  0.000  0.512
    3
step  407
O  0.000  -0.000  -0.064
H  0.782  0.000  0.506
H  -0.785  0.000  0.507
    3
step  408
O  0.000  0.000  -0.063
H  0.768  -0.000  0.502
H  -0.770  -0.000  0.503
    3
step  409
O  0.000  -0.000  -0.063
H  0.755  0.000  0.498
H  -0.756  0.000  0.498
    3
step  410
O  -0.000  0.000  -0.063
H  0.745  0.000  0.496
H  -0.744  -0.000  0.496
    3
step  411
O  -0.000  -0.000  -0.063
H  0.738  0.000  0.497
H  -0.736  0.000  0.496
    3
step  412
O  -0.000  0.000  -0.063
H  0.735  -0.000  0.500
H  -0.733  -0.000  0.499
    3
step  413
O  -0.000  0.000  -0.064
H  0.737  -0.000  0.507
H  -0.734  -0.000  0.505
    3
step  414
O  -0.000  0.000  -0.065
H  0.742  -0.000  0.515
H  -0.741  0.000  0.514
    3
step  415
O  -0.000  0.000  -0.066
H  0.751  -0.000  0.525
H  -0.750  -0.000  0.524
    3
step  416
O  0.000  0.000  -0.067
H  0.761  -0.000  0.535
H  -0.761  -0.000  0.535
    3
step  417
O  0.000  -0.000  -0.069
H  0.771  0.000  0.545
H  -0.772  0.000  0.546
    3
step  418
O  0.000  0.000  -0.070
H  0.780  -0.000  0.552
H  -0.783  -0.000  0.554
    3
step  419
O  0.000  0.000  -0.070
H  0.787  -0.000  0.558
H  -0.791  0.000  0.560
    3
step  420
O  0.000  -0.000  -0.071
H  0.791  0.000  0.560
H  -0.795  0.000  0.563
    3
step  421
O  0.000  -0.000  -0.071
H  0.792  0.000  0.560
H  -0.797  0.000  0.562
    3
step  422
O  0.000  0.000  -0.070
H  0.790  -0.000  0.556
H  -0.794  -0.000  0.558
    3
step  423
O  0.000  -0.000  -0.069
H  0.785  0.000  0.548
H  -0.788  0.000  0.550
    3
step  424
O  0.000  -0.000  -0.068
H  0.777  0.000  0.539
H  -0.780  0.000  0.540
    3
step  425
O  0.000  -0.000  -0.066
H  0.768  0.000  0.527
H  -0.769  0.000  0.528
    3
step  426
O  -0.000  -0.000  -0.065
H  0.758  0.000  0.515
H  -0.758  -0.000  0.514
    3
step  427
O  -0.000  0.000  -0.063
H  0.750  0.000  0.502
H  -0.748  -0.000  0.501
    3
step  428
O  -0.000  0.000  -0.062
H  0.744  -0.000  0.492
H  -0.741  -0.000  0.490
    3
step  429
O  -0.000  0.000  -0.061
H  0.743  -0.000  0.484
H  -0.738  -0.000  0.481
    3
step  430
O  -0.000  0.000  -0.060
H  0.746  0.000  0.479
H  -0.742  -0.000  0.477
    3
step  431
O  -0.000  0.000  -0.060
H  0.754  0.000  0.478
H  -0.751  -0.000  0.476
    3
step  432
O  -0.000  -0.000  -0.060
H  0.767  0.000  0.480
H  -0.765  0.000  0.479
    3
step  433
O  -0.000  0.000  -0.061
H  0.782  -0.000  0.484
H  -0.782  0.000  0.484
    3
step  434
O  0.000  0.000  -0.062
H  0.799  -0.000  0.489
H  -0.800  -0.000  0.490
    3
step  435
O  0.000  0.000  -0.062
H  0.814  -0.000  0.495
H  -0.817  0.000  0.496
    3
step  436
O  0.000  0.000  -0.063
H  0.828  -0.000  0.499
H  -0.832  0.000  0.502
    3
step  437
O  0.000  -0.000  -0.063
H  0.838  0.000  0.502
H  -0.843  0.000  0.505
    3
step  438
O  0.000  -0.000  -0.064
H  0.844  0.000  0.504
H  -0.849  0.000  0.507
    3
step  439
O  0.000  0.000  -0.064
H  0.845  -0.000  0.503
H  -0.849  -0.000  0.506
    3
step  440
O  0.000  -0.000  -0.063
H  0.841  0.000  0.500
H  -0.845  0.000  0.502
    3
step  441
O  0.000  -0.000  -0.062
H  0.832  0.000  0.495
H  -0.835  -0.000  0.497
    3
step  442
O  0.000  0.000  -0.062
H  0.820  -0.000  0.488
H  -0.821  0.000  0.489
    3
step  443
O  0.000  0.000  -0.061
H  0.804  -0.000  0.481
H  -0.804  -0.000  0.481
    3
step  444
O  -0.000  0.000  -0.060
H  0.788  -0.000  0.474
H  -0.786  -0.000  0.473
    3
step  445
O  -0.000  -0.000  -0.059
H  0.772  0.000  0.468
H  -0.769  0.000  0.467
    3
step  446
O  -0.000  -0.000  -0.058
H  0.759  -0.000  0.465
H  -0.756  0.000  0.463
    3
step  447
O  -0.000  0.000  -0.059
H  0.750  -0.000  0.465
H  -0.747  -0.000  0.464
    3
step  448
O  -0.000  -0.000  -0.059
H  0.746  0.000  0.470
H  -0.744  0.000  0.469
    3
step  449
O  -0.000  0.000  -0.060
H  0.748  -0.000  0.478
H  -0.748  -0.000  0.478
    3
step  450
O  0.000  -0.000  -0.062
H  0.755  0.000  0.491
H  -0.757  0.000  0.492
    3
step  451
O  0.000  0.000  -0.064
H  0.765  0.000  0.505
H  -0.768  -0.000  0.507
    3
step  452
O  0.000  -0.000  -0.066
H  0.776  0.000  0.520
H  -0.781  0.000  0.523
    3
step  453
O  0.000  -0.000  -0.068
H  0.787  0.000  0.535
H  -0.793  -0.000  0.538
    3
step  454
O  0.000  -0.000  -0.069
H  0.795  -0.000  0.548
H  -0.802  0.000  0.552
    3
step  455
O  0.000  -0.000  -0.071
H  0.801  0.000  0.558
H  -0.807  0.000  0.562
    3
step  456
O  0.000  -0.000  -0.071
H  0.803  0.000  0.564
H  -0.809  0.000  0.568
    3
step  457
O  0.000  0.000  -0.072
H  0.800  0.000  0.567
H  -0.806  -0.000  0.571
    3
step  458
O  0.000  -0.000  -0.072
H  0.794  -0.000  0.567
H  -0.798  0.000  0.569
    3
step  459
O  0.000  -0.000  -0.071
H  0.784  -0.000  0.562
H  -0.786  0.000  0.564
    3
step  460
O  0.000  0.000  -0.070
H  0.771  -0.000  0.555
H  -0.772  -0.000  0.555
    3
step  461
O  -0.000  -0.000  -0.069
H  0.757  0.000  0.545
H  -0.755  0.000  0.544
    3
step  462
O  -0.000  0.000  -0.067
H  0.742  -0.000  0.534
H  -0.739  0.000  0.532
    3
step  463
O  -0.000  -0.000  -0.066
H  0.729  0.000  0.523
H  -0.725  0.000  0.521
    3
step  464
O  -0.000  -0.000  -0.065
H  0.719  0.000  0.514
H  -0.715  -0.000  0.511
    3
step  465
O  -0.000  -0.000  -0.064
H  0.715  -0.000  0.508
H  -0.711  0.000  0.505
    3
step  466
O  -0.000  0.000  -0.064
H  0.717  0.000  0.505
H  -0.714  -0.000  0.503
    3
step  467
O  -0.000  -0.000  -0.064
H  0.726  0.000  0.506
H  -0.724  -0.000  0.505
    3
step  468
O  0.000  -0.000  -0.064
H  0.739  0.000  0.510
H  -0.740  0.000  0.511
    3
step  469
O  0.000  -0.000  -0.065
H  0.757  0.000  0.517
H  -0.758  0.000  0.518
    3
step  470
O  0.000  0.000  -0.066
H  0.775  -0.000  0.523
H  -0.778  -0.000  0.525
    3
step  471
O  0.000  0.000  -0.067
H  0.793  -0.000  0.529
H  -0.797  -0.000  0.532
    3
step  472
O  0.000  0.000  -0.067
H  0.809  0.000  0.534
H  -0.813  -0.000  0.536
    3
step  473
O  0.000  -0.000  -0.068
H  0.821  -0.000  0.535
H  -0.825  0.000  0.537
    3
step  474
O  0.000  0.000  -0.067
H  0.829  0.000  0.534
H  -0.832  -0.000  0.536
    3
step  475
O  0.000  0.000  -0.067
H  0.832  -0.000  0.530
H  -0.834  0.000  0.531
    3
step  476
O  -0.000  -0.000  -0.066
H  0.830  -0.000  0.523
H  -0.830  0.000  0.523
    3
step  477
O  -0.000  -0.000  -0.065
H  0.824  0.000  0.514
H  -0.822  0.000  0.513
    3
step  478
O  -0.000  -0.000  -0.063
H  0.814  0.000  0.503
H  -0.811  -0.000  0.501
    3
step  479
O  -0.000  0.000  -0.062
H  0.801  0.000  0.490
H  -0.797  -0.000  0.487
    3
step  480
O  -0.000  -0.000  -0.060
H  0.787  0.000  0.478
H  -0.782  0.000  0.475
    3
step  481
O  -0.000  -0.000  -0.059
H  0.774  0.000  0.466
H  -0.769  0.000  0.463
    3
step  482
O  -0.000  -0.000  -0.058
H  0.763  0.000  0.458
H  -0.759  -0.000  0.455
    3
step  483
O  -0.000  -0.000  -0.057
H  0.758  -0.000  0.453
H  -0.755  0.000  0.452
    3
step  484
O  -0.000  0.000  -0.057
H  0.758  -0.000  0.453
H  -0.757  0.000  0.453
    3
step  485
O  0.000  0.000  -0.058
H  0.763  -0.000  0.458
H  -0.765  -0.000  0.459
    3
step  486
O  0.000  -0.000  -0.059
H  0.773  -0.000  0.466
H  -0.777  0.000  0.468
    3
step  487
O  0.000  -0.000  -0.060
H  0.786  0.000  0.477
H  -0.791  -0.000  0.480
    3
step  488
O  0.000  0.000  -0.062
H  0.800  -0.000  0.489
H  -0.805  0.000  0.492
    3
step  489
O  0.000  -0.000  -0.063
H  0.813  -0.000  0.501
H  -0.818  0.000  0.504
    3
step  490
O  0.000  0.000  -0.065
H  0.823  -0.000  0.512
H  -0.827  -0.000  0.515
    3
step  491
O  0.000  -0.000  -0.066
H  0.829  0.000  0.521
H  -0.832  -0.000  0.523
    3
step  492
O  0.000  -0.000  -0.067
H  0.830  0.000  0.527
H  -0.833  0.000  0.529
    3
step  493
O  0.000  0.000  -0.067
H  0.827  0.000  0.531
H  -0.828  -0.000  0.531
    3
step  494
O  -0.000  0.000  -0.067
H  0.819  -0.000  0.531
H  -0.819  -0.000  0.531
    3
step  495
O  -0.000  0.000  -0.067
H  0.807  -0.000  0.529
H  -0.806  0.000  0.528
    3
step  496
O  -0.000  -0.000  -0.066
H  0.792  0.000  0.525
H  -0.789  0.000  0.523
    3
step  497
O  -0.000  0.000  -0.065
H  0.775  -0.000  0.519
H  -0.772  0.000  0.517
    3
step  498
O  -0.000  -0.000  -0.064
H  0.757  -0.000  0.512
H  -0.754  0.000  0.510
    3
step  499
O  -0.000  0.000  -0.064
H  0.742  0.000  0.507
H  -0.739  -0.000  0.505
    3
step  500
O  -0.000  0.000  -0.063
H  0.729  0.000  0.503
H  -0.727  -0.000  0.502
    3
step  501
O  -0.000  -0.000  -0.063
H  0.722  0.000  0.502
H  -0.722  -0.000  0.502
    3
step  502
O  0.000  0.000  -0.064
H  0.721  -0.000  0.505
H  -0.722  0.000  0.506
    3
step  503
O  0.000  -0.000  -0.065
H  0.725  0.000  0.512
H  -0.728  0.000  0.513
    3
step  504
O  0.000  -0.000  -0.066
H  0.735  0.000  0.520
H  -0.738  -0.000  0.523
    3
step  505
O  0.000  -0.000  -0.067
H  0.747  0.000  0.531
H  -0.751  -0.000  0.533
    3
step  506
O  0.000  -0.000  -0.068
H  0.761  -0.000  0.541
H  -0.765  0.000  0.543
    3
step  507
O  0.000  0.000  -0.069
H  0.775  -0.000  0.550
H  -0.777  0.000  0.552
    3
step  508
O  0.000  -0.000  -0.070
H  0.787  -0.000  0.557
H  -0.788  0.000  0.558
    3
step  509
O  0.000  0.000  -0.071
H  0.795  -0.000  0.560
H  -0.796  -0.000  0.560
    3
step  510
O  -0.000  -0.000  -0.071
H  0.801  -0.000  0.561
H  -0.800  0.000  0.560
    3
step  511
O  -0.000  0.000  -0.070
H  0.802  -0.000  0.558
H  -0.800  -0.000  0.556
    3
step  512
O  -0.000  -0.000  -0.069
H  0.800  -0.000  0.551
H  -0.796  0.000  0.549
    3
step  513
O  -0.000  -0.000  -0.068
H  0.794  -0.000  0.541
H  -0.789  0.000  0.539
    3
step  514
O  -0.000  0.000  -0.067
H  0.785  -0.000  0.530
H  -0.780  0.000  0.526
    3
step  515
O  -0.000  0.000  -0.065
H  0.775  0.000  0.516
H  -0.770  -0.000  0.513
    3
step  516
O  -0.000  -0.000  -0.063
H  0.765  0.000  0.503
H  -0.760  -0.000  0.500
    3
step  517
O  -0.000  0.000  -0.062
H  0.756  0.000  0.490
H  -0.752  -0.000  0.488
    3
step  518
O  -0.000  -0.000  -0.060
H  0.750  0.000  0.480
H  -0.748  -0.000  0.479
    3
step  519
O  0.000  -0.000  -0.060
H  0.749  -0.000  0.473
H  -0.749  0.000  0.473
    3
step  520
O  0.000  -0.000  -0.059
H  0.753  0.000  0.470
H  -0.755  -0.000  0.471
    3
step  521
O  0.000  0.000  -0.059
H  0.762  -0.000  0.471
H  -0.765  -0.000  0.472
    3
step  522
O  0.000  0.000  -0.060
H  0.775  0.000  0.474
H  -0.778  -0.000  0.476
    3
step  523
O  0.000  0.000  -0.061
H  0.790  -0.000  0.480
H  -0.793  -0.000  0.482
    3
step  524
O  0.000  -0.000  -0.061
H  0.805  0.000  0.487
H  -0.807  -0.000  0.489
    3
step  525
O  0.000  0.000  -0.062
H  0.819  -0.000  0.494
H  -0.820  -0.000  0.495
    3
step  526
O  0.000  0.000  -0.063
H  0.830  -0.000  0.499
H  -0.830  -0.000  0.499
    3
step  527
O  -0.000  0.000  -0.063
H  0.837  -0.000  0.503
H  -0.836  -0.000  0.503
    3
step  528
O  -0.000  -0.000  -0.064
H  0.840  -0.000  0.505
H  -0.837  0.000  0.504
    3
step  529
O  -0.000  -0.000  -0.064
H  0.837  0.000  0.505
H  -0.834  -0.000  0.503
    3
step  530
O  -0.000  0.000  -0.063
H  0.831  -0.000  0.503
H  -0.827  0.000  0.500
    3
step  531
O  -0.000  -0.000  -0.063
H  0.820  0.000  0.499
H  -0.816  0.000  0.496
    3
step  532
O  -0.000  -0.000  -0.062
H  0.806  0.000  0.494
H  -0.802  0.000  0.491
    3
step  533
O  -0.000  0.000  -0.061
H  0.791  -0.000  0.488
H  -0.788  0.000  0.486
    3
step  534
O  -0.000  -0.000  -0.061
H  0.775  0.000  0.482
H  -0.773  -0.000  0.481
    3
step  535
O  -0.000  0.000  -0.060
H  0.761  -0.000  0.478
H  -0.761  0.000  0.478
    3
step  536
O  0.000  0.000  -0.060
H  0.750  -0.000  0.477
H  -0.752  0.000  0.478
    3
step  537
O  0.000  -0.000  -0.060
H  0.744  0.000  0.479
H  -0.747  -0.000  0.481
    3
step  538
O  0.000  -0.000  -0.061
H  0.743  0.000  0.485
H  -0.747  0.000  0.487
    3
step  539
O  0.000  0.000  -0.062
H  0.748  0.000  0.494
H  -0.752  -0.000  0.496
    3
step  540
O  0.000  0.000  -0.064
H  0.755  -0.000  0.505
H  -0.759  0.000  0.507
    3
step  541
O  0.000  -0.000  -0.065
H  0.765  0.000  0.518
H  -0.768  0.000  0.519
    3
step  542
O  0.000  0.000  -0.067
H  0.776  0.000  0.530
H  -0.777  -0.000  0.531
    3
step  543
O  -0.000  0.000  -0.068
H  0.785  -0.000  0.542
H  -0.785  -0.000  0.541
    3
step  544
O  -0.000  0.000  -0.069
H  0.792  -0.000  0.550
H  -0.791  -0.000  0.549
    3
step  545
O  -0.000  -0.000  -0.070
H  0.796  -0.000  0.557
H  -0.793  0.000  0.555
    3
step  546
O  -0.000  0.000  -0.070
H  0.797  0.000  0.559
H  -0.793  -0.000  0.557
    3
step  547
O  -0.000  0.000  -0.070
H  0.794  0.000  0.559
H  -0.789  -0.000  0.556
    3
step  548
O  -0.000  0.000  -0.070
H  0.787  -0.000  0.555
H  -0.783  0.000  0.552
    3
step  549
O  -0.000  0.000  -0.069
H  0.778  -0.000  0.548
H  -0.774  0.000  0.546
    3
step  550
O  -0.000  -0.000  -0.068
H  0.767  0.000  0.539
H  -0.763  0.000  0.537
    3
step  551
O  -0.000  0.000  -0.067
H  0.755  -0.000  0.529
H  -0.753  0.000  0.528
    3
step  552
O  -0.000  -0.000  -0.065
H  0.744  0.000  0.518
H  -0.743  0.000  0.518
    3
step  553
O  0.000  0.000  -0.064
H  0.735  -0.000  0.509
H  -0.736  -0.000  0.509
    3
step  554
O  0.000  -0.000  -0.063
H  0.731  0.000  0.501
H  -0.733  0.000  0.503
    3
step  555
O  0.000  0.000  -0.063
H  0.731  -0.000  0.497
H  -0.734  -0.000  0.499
    3
step  556
O  0.000  0.000  -0.063
H  0.737  -0.000  0.496
H  -0.740  -0.000  0.498
    3
step  557
O  0.000  -0.000  -0.063
H  0.748  0.000  0.498
H  -0.750  0.000  0.500
    3
step  558
O  0.000  -0.000  -0.063
H  0.762  0.000  0.502
H  -0.763  0.000  0.503
    3
step  559
O  0.000  -0.000  -0.064
H  0.778  0.000  0.507
H  -0.778  0.000  0.507
    3
step  560
O  -0.000  0.000  -0.065
H  0.794  -0.000  0.513
H  -0.792  -0.000  0.512
    3
step  561
O  -0.000  0.000  -0.065
H  0.808  -0.000  0.517
H  -0.805  -0.000  0.515
    3
step  562
O  -0.000  0.000  -0.065
H  0.819  0.000  0.519
H  -0.815  -0.000  0.517
    3
step  563
O  -0.000  0.000  -0.065
H  0.826  -0.000  0.520
H  -0.822  -0.000  0.517
    3
step  564
O  -0.000  -0.000  -0.065
H  0.830  0.000  0.518
H  -0.825  -0.000  0.514
    3
step  565
O  -0.000  0.000  -0.064
H  0.828  -0.000  0.513
H  -0.823  0.000  0.510
    3
step  566
O  -0.000  -0.000  -0.064
H  0.823  0.000  0.506
H  -0.819  0.000  0.504
    3
step  567
O  -0.000  0.000  -0.063
H  0.814  -0.000  0.498
H  -0.811  0.000  0.496
    3
step  568
O  -0.000  0.000  -0.061
H  0.802  -0.000  0.488
H  -0.800  -0.000  0.487
    3
step  569
O  -0.000  -0.000  -0.060
H  0.790  0.000  0.479
H  -0.789  0.000  0.479
    3
step  570
O  0.000  -0.000  -0.059
H  0.777  0.000  0.470
H  -0.778  0.000  0.471
    3
step  571
O  0.000  0.000  -0.059
H  0.767  -0.000  0.464
H  -0.769  -0.000  0.465
    3
step  572
O  0.000  0.000  -0.058
H  0.760  -0.000  0.461
H  -0.764  0.000  0.463
    3
step  573
O  0.000  -0.000  -0.058
H  0.759  0.000  0.461
H  -0.762  0.000  0.463
    3
step  574
O  0.000  0.000  -0.059
H  0.762  -0.000  0.466
H  -0.765  -0.000  0.467
    3
step  575
O  0.000  0.000  -0.060
H  0.769  -0.000  0.473
H  -0.771  -0.000  0.474
    3
step  576
O  0.000  0.000  -0.061
H  0.780  -0.000  0.483
H  -0.780  -0.000  0.484
    3
step  577
O  -0.000  -0.000  -0.062
H  0.791  0.000  0.495
H  -0.790  0.000  0.494
    3
step  578
O  -0.000  0.000  -0.064
H  0.802  -0.000  0.506
H  -0.799  -0.000  0.505
    3
step  579
O  -0.000  0.000  -0.065
H  0.810  -0.000  0.517
H  -0.807  -0.000  0.515
    3
step  580
O  -0.000  0.000  -0.066
H  0.816  -0.000  0.525
H  -0.812  -0.000  0.523
    3
step  581
O  -0.000  -0.000  -0.067
H  0.818  0.000  0.532
H  -0.814  -0.000  0.529
    3
step  582
O  -0.000  0.000  -0.067
H  0.815  -0.000  0.535
H  -0.812  -0.000  0.533
    3
step  583
O  -0.000  0.000  -0.067
H  0.809  -0.000  0.536
H  -0.806  -0.000  0.534
    3
step  584
O  -0.000  -0.000  -0.067
H  0.799  0.000  0.534
H  -0.797  0.000  0.532
    3
step  585
O  -0.000  -0.000  -0.067
H  0.786  0.000  0.530
H  -0.785  -0.000  0.529
    3
step  586
O  0.000  0.000  -0.066
H  0.771  -0.000  0.524
H  -0.772  0.000  0.524
    3
step  587
O  0.000  -0.000  -0.065
H  0.756  0.000  0.517
H  -0.758  0.000  0.518
    3
step  588
O  0.000  -0.000  -0.065
H  0.742  0.000  0.511
H  -0.745  0.000  0.513
    3
step  589
O  0.000  -0.000  -0.064
H  0.732  0.000  0.507
H  -0.735  0.000  0.509
    3
step  590
O  0.000  0.000  -0.064
H  0.726  -0.000  0.504
H  -0.729  0.000  0.507
    3
step  591
O  0.000  -0.000  -0.064
H  0.725  0.000  0.506
H  -0.728  0.000  0.507
    3
step  592
O  0.000  0.000  -0.064
H  0.730  0.000  0.510
H  -0.731  -0.000  0.511
    3
step  593
O  -0.000  -0.000  -0.065
H  0.739  0.000  0.516
H  -0.739  0.000  0.516
    3
step  594
O  -0.000  0.000  -0.066
H  0.751  -0.000  0.524
H  -0.750  -0.000  0.523
    3
step  595
O  -0.000  -0.000  -0.067
H  0.765  -0.000  0.533
H  -0.762  0.000  0.531
    3
step  596
O  -0.000  0.000  -0.068
H  0.778  -0.000  0.540
H  -0.774  -0.000  0.538
    3
step  597
O  -0.000  0.000  -0.069
H  0.790  -0.000  0.546
H  -0.786  0.000  0.543
    3
step  598
O  -0.000  0.000  -0.069
H  0.799  -0.000  0.549
H  -0.795  -0.000  0.546
    3
step  599
O  -0.000  -0.000  -0.069
H  0.805  0.000  0.549
H  -0.801  0.000  0.546
    3
step  600
O  -0.000  0.000  -0.069
H  0.807  -0.000  0.546
H  -0.803  0.000  0.543
    3
step  601
O  -0.000  -0.000  -0.068
H  0.805  0.000  0.540
H  -0.802  0.000  0.538
    3
step  602
O  -0.000  0.000  -0.067
H  0.800  -0.000  0.531
H  -0.798  -0.000  0.530
    3
step  603
O  -0.000  -0.000  -0.065
H  0.792  0.000  0.520
H  -0.791  -0.000  0.520
    3
step  604
O  0.000  -0.000  -0.064
H  0.782  0.000  0.508
H  -0.783  0.000  0.508
    3
step  605
O  0.000  0.000  -0.062
H  0.772  -0.000  0.495
H  -0.773  -0.000  0.496
    3
step  606
O  0.000  0.000  -0.061
H  0.763  -0.000  0.484
H  -0.765  -0.000  0.485
    3
step  607
O  0.000  0.000  -0.060
H  0.756  0.000  0.474
H  -0.759  -0.000  0.476
    3
step  608
O  0.000  -0.000  -0.059
H  0.755  0.000  0.468
H  -0.757  -0.000  0.469
    3
step  609
O  0.000  0.000  -0.059
H  0.758  -0.000  0.466
H  -0.759  0.000  0.466
    3
step  610
O  -0.000  0.000  -0.059
H  0.765  -0.000  0.467
H  -0.765  -0.000  0.467
    3
step  611
O  -0.000  0.000  -0.059
H  0.777  -0.000  0.471
H  -0.775  -0.000  0.470
    3
step  612
O  -0.000  0.000  -0.060
H  0.790  -0.000  0.478
H  -0.788  -0.000  0.476
    3
step  613
O  -0.000  0.000  -0.061
H  0.804  -0.000  0.485
H  -0.801  -0.000  0.483
    3
step  614
O  -0.000  0.000  -0.062
H  0.817  -0.000  0.492
H  -0.813  -0.000  0.490
    3
step  615
O  -0.000  0.000  -0.063
H  0.827  -0.000  0.499
H  -0.823  0.000  0.497
    3
step  616
O  -0.000  0.000  -0.063
H  0.834  -0.000  0.504
H  -0.830  -0.000  0.502
    3
step  617
O  -0.000  -0.000  -0.064
H  0.836  0.000  0.507
H  -0.834  0.000  0.505
    3
step  618
O  -0.000  0.000  -0.064
H  0.834  -0.000  0.508
H  -0.832  -0.000  0.507
    3
step  619
O  -0.000  0.000  -0.064
H  0.827  -0.000  0.506
H  -0.827  -0.000  0.506
    3
step  620
O  0.000  -0.000  -0.063
H  0.817  0.000  0.503
H  -0.818  0.000  0.504
    3
step  621
O  0.000  -0.000  -0.063
H  0.803  0.000  0.499
H  -0.805  -0.000  0.500
    3
step  622
O  0.000  0.000  -0.062
H  0.788  -0.000  0.494
H  -0.791  -0.000  0.495
    3
step  623
O  0.000  0.000  -0.062
H  0.772  0.000  0.489
H  -0.776  -0.000  0.491
    3
step  624
O  0.000  0.000  -0.061
H  0.758  -0.000  0.485
H  -0.761  -0.000  0.487
    3
step  625
O  0.000  -0.000  -0.061
H  0.747  0.000  0.484
H  -0.750  0.000  0.485
    3
step  626
O  0.000  -0.000  -0.061
H  0.741  0.000  0.485
H  -0.743  0.000  0.486
    3
step  627
O  0.000  0.000  -0.062
H  0.740  -0.000  0.491
H  -0.740  -0.000  0.491
    3
step  628
O  -0.000  -0.000  -0.063
H  0.743  0.000  0.499
H  -0.742  0.000  0.498
    3
step  629
O  -0.000  -0.000  -0.064
H  0.751  0.000  0.510
H  -0.748  0.000  0.508
    3
step  630
O  -0.000  0.000  -0.066
H  0.760  0.000  0.522
H  -0.757  -0.000  0.520
    3
step  631
O  -0.000  -0.000  -0.067
H  0.771  0.000  0.534
H  -0.767  0.000  0.531
    3
step  632
O  -0.000  0.000  -0.068
H  0.780  -0.000  0.544
H  -0.777  -0.000  0.542
    3
step  633
O  -0.000  0.000  -0.070
H  0.788  -0.000  0.553
H  -0.785  -0.000  0.551
    3
step  634
O  -0.000  -0.000  -0.070
H  0.793  0.000  0.559
H  -0.791  0.000  0.557
    3
step  635
O  -0.000  -0.000  -0.071
H  0.795  0.000  0.561
H  -0.794  0.000  0.561
    3
step  636
O  0.000  0.000  -0.071
H  0.793  -0.000  0.560
H  -0.793  -0.000  0.560
    3
step  637
O  0.000  -0.000  -0.070
H  0.788  0.000  0.556
H  -0.789  0.000  0.557
    3
step  638
O  0.000  -0.000  -0.069
H  0.780  0.000  0.549
H  -0.782  0.000  0.550
    3
step  639
O  0.000  -0.000  -0.068
H  0.770  0.000  0.539
H  -0.772  0.000  0.541
    3
step  640
O  0.000  0.000  -0.067
H  0.759  0.000  0.528
H  -0.762  -0.000  0.530
    3
step  641
O  0.000  0.000  -0.065
H  0.749  -0.000  0.517
H  -0.751  -0.000  0.518
    3
step  642
O  0.000  0.000  -0.064
H  0.740  -0.000  0.506
H  -0.742  -0.000  0.507
    3
step  643
O  0.000  0.000  -0.063
H  0.736  -0.000  0.498
H  -0.736  0.000  0.498
    3
step  644
O  -0.000  0.000  -0.062
H  0.736  -0.000  0.492
H  -0.735  -0.000  0.491
    3
step  645
O  -0.000  -0.000  -0.062
H  0.742  -0.000  0.490
H  -0.740  0.000  0.488
    3
step  646
O  -0.000  -0.000  -0.062
H  0.752  0.000  0.490
H  -0.749  0.000  0.488
    3
step  647
O  -0.000  0.000  -0.062
H  0.766  -0.000  0.494
H  -0.762  0.000  0.491
    3
step  648
O  -0.000  -0.000  -0.063
H  0.781  0.000  0.498
H  -0.777  -0.000  0.496
    3
step  649
O  -0.000  0.000  -0.063
H  0.797  -0.000  0.503
H  -0.794  -0.000  0.501
    3
step  650
O  -0.000  0.000  -0.064
H  0.811  -0.000  0.507
H  -0.809  -0.000  0.506
    3
step  651
O  -0.000  -0.000  -0.064
H  0.823  0.000  0.510
H  -0.821  0.000  0.509
    3
step  652
O  -0.000  -0.000  -0.064
H  0.831  -0.000  0.511
H  -0.831  0.000  0.511
    3
step  653
O  0.000  -0.000  -0.064
H  0.835  0.000  0.510
H  -0.835  0.000  0.510
    3
step  654
O  0.000  0.000  -0.064
H  0.834  -0.000  0.507
H  -0.836  -0.000  0.507
    3
step  655
O  0.000  -0.000  -0.063
H  0.829  -0.000  0.501
H  -0.831  0.000  0.502
    3
step  656
O  0.000  -0.000  -0.062
H  0.820  0.000  0.494
H  -0.823  0.000  0.496
    3
step  657
O  0.000  0.000  -0.061
H  0.809  0.000  0.486
H  -0.811  -0.000  0.487
    3
step  658
O  0.000  -0.000  -0.060
H  0.795  -0.000  0.477
H  -0.798  0.000  0.479
    3
step  659
O  0.000  0.000  -0.059
H  0.782  -0.000  0.470
H  -0.784  0.000  0.471
    3
step  660
O  0.000  0.000  -0.058
H  0.770  -0.000  0.464
H  -0.771  -0.000  0.464
    3
step  661
O  -0.000  0.000  -0.058
H  0.762  -0.000  0.461
H  -0.761  -0.000  0.460
    3
step  662
O  -0.000  -0.000  -0.058
H  0.758  0.000  0.462
H  -0.756  0.000  0.460
    3
step  663
O  -0.000  0.000  -0.059
H  0.759  -0.000  0.466
H  -0.757  -0.000  0.465
    3
step  664
O  -0.000  -0.000  -0.060
H  0.765  0.000  0.474
H  -0.762  0.000  0.472
    3
step  665
O  -0.000  -0.000  -0.061
H  0.773  0.000  0.485
H  -0.771  0.000  0.483
    3
step  666
O  -0.000  -0.000  -0.063
H  0.784  0.000  0.497
H  -0.782  0.000  0.496
    3
step  667
O  -0.000  -0.000  -0.064
H  0.794  0.000  0.509
H  -0.793  0.000  0.509
    3
step  668
O  0.000  -0.000  -0.066
H  0.803  0.000  0.521
H  -0.803  0.000  0.521
    3
step  669
O  0.000  -0.000  -0.067
H  0.809  0.000  0.531
H  -0.810  -0.000  0.532
    3
step  670
O  0.000  -0.000  -0.068
H  0.812  0.000  0.538
H  -0.814  -0.000  0.540
    3
step  671
O  0.000  0.000  -0.069
H  0.811  -0.000  0.543
H  -0.814  -0.000  0.545
    3
step  672
O  0.000  -0.000  -0.069
H  0.806  0.000  0.545
H  -0.809  0.000  0.547
    3
step  673
O  0.000  0.000  -0.069
H  0.797  -0.000  0.544
H  -0.801  -0.000  0.546
    3
step  674
O  0.000  0.000  -0.068
H  0.785  -0.000  0.540
H  -0.789  0.000  0.542
    3
step  675
O  0.000  -0.000  -0.067
H  0.771  0.000  0.534
H  -0.774  0.000  0.535
    3
step  676
O  0.000  -0.000  -0.066
H  0.757  0.000  0.526
H  -0.758  0.000  0.527
    3
step  677
O  0.000  0.000  -0.065
H  0.743  -0.000  0.519
H  -0.743  -0.000  0.519
    3
step  678
O  -0.000  0.000  -0.065
H  0.731  -0.000  0.512
H  -0.730  -0.000  0.512
    3
step  679
O  -0.000  0.000  -0.064
H  0.724  -0.000  0.508
H  -0.722  -0.000  0.506
    3
step  680
O  -0.000  -0.000  -0.064
H  0.722  -0.000  0.506
H  -0.719  0.000  0.504
    3
step  681
O  -0.000  -0.000  -0.064
H  0.725  0.000  0.508
H  -0.722  -0.000  0.506
    3
step  682
O  -0.000  0.000  -0.064
H  0.734  -0.000  0.513
H  -0.731  -0.000  0.511
    3
step  683
O  -0.000  0.000  -0.065
H  0.746  -0.000  0.520
H  -0.744  -0.000  0.518
    3
step  684
O  -0.000  -0.000  -0.066
H  0.761  0.000  0.527
H  -0.760  -0.000  0.526
    3
step  685
O  -0.000  -0.000  -0.067
H  0.777  0.000  0.534
H  -0.776  -0.000  0.534
    3
step  686
O  0.000  0.000  -0.068
H  0.791  -0.000  0.540
H  -0.792  0.000  0.540
    3
step  687
O  0.000  -0.000  -0.069
H  0.803  -0.000  0.544
H  -0.805  0.000  0.545
    3
step  688
O  0.000  -0.000  -0.069
H  0.812  0.000  0.544
H  -0.814  0.000  0.546
    3
step  689
O  0.000  -0.000  -0.068
H  0.817  0.000  0.542
H  -0.820  0.000  0.544
    3
step  690
O  0.000  0.000  -0.068
H  0.817  -0.000  0.537
H  -0.820  -0.000  0.538
    3
step  691
O  0.000  -0.000  -0.067
H  0.814  0.000  0.528
H  -0.816  -0.000  0.530
    3
step  692
O  0.000  0.000  -0.065
H  0.807  -0.000  0.518
H  -0.809  -0.000  0.518
    3
step  693
O  0.000  -0.000  -0.064
H  0.797  0.000  0.505
H  -0.798  0.000  0.505
    3
step  694
O  -0.000  0.000  -0.062
H  0.786  -0.000  0.491
H  -0.785  -0.000  0.491
    3
step  695
O  -0.000  -0.000  -0.060
H  0.775  0.000  0.478
H  -0.772  -0.000  0.477
    3
step  696
O  -0.000  -0.000  -0.059
H  0.765  0.000  0.467
H  -0.762  0.000  0.465
    3
step  697
O  -0.000  -0.000  -0.058
H  0.759  0.000  0.458
H  -0.755  -0.000  0.456
    3
step  698
O  -0.000  0.000  -0.057
H  0.759  -0.000  0.454
H  -0.754  -0.000  0.451
    3
step  699
O  -0.000  -0.000  -0.057
H  0.763  0.000  0.453
H  -0.760  0.000  0.451
    3
step  700
O  -0.000  0.000  -0.058
H  0.773  -0.000  0.457
H  -0.771  -0.000  0.456
    3
step  701
O  -0.000  0.000  -0.058
H  0.787  -0.000  0.464
H  -0.786  -0.000  0.464
    3
step  702
O  0.000  0.000  -0.060
H  0.802  -0.000  0.473
H  -0.803  0.000  0.474
    3
step  703
O  0.000  -0.000  -0.061
H  0.817  0.000  0.483
H  -0.820  -0.000  0.484
    3
step  704
O  0.000  -0.000  -0.062
H  0.831  0.000  0.492
H  -0.834  -0.000  0.494
    3
step  705
O  0.000  0.000  -0.063
H  0.841  -0.000  0.501
H  -0.845  -0.000  0.503
    3
step  706
O  0.000  0.000  -0.064
H  0.846  -0.000  0.507
H  -0.850  -0.000  0.509
    3
step  707
O  0.000  0.000  -0.065
H  0.847  -0.000  0.511
H  -0.851  -0.000  0.513
    3
step  708
O  0.000  0.000  -0.065
H  0.842  -0.000  0.513
H  -0.845  -0.000  0.514
    3
step  709
O  0.000  0.000  -0.065
H  0.833  -0.000  0.512
H  -0.835  -0.000  0.513
    3
step  710
O  0.000  0.000  -0.064
H  0.818  -0.000  0.509
H  -0.819  -0.000  0.509
    3
step  711
O  -0.000  0.000  -0.063
H  0.801  -0.000  0.504
H  -0.800  -0.000  0.503
    3
step  712
O  -0.000  -0.000  -0.063
H  0.782  0.000  0.498
H  -0.780  0.000  0.497
    3
step  713
O  -0.000  -0.000  -0.062
H  0.762  0.000  0.492
H  -0.759  0.000  0.491
    3
step  714
O  -0.000  0.000  -0.061
H  0.745  -0.000  0.489
H  -0.741  -0.000  0.486
    3
step  715
O  -0.000  -0.000  -0.061
H  0.732  0.000  0.488
H  -0.728  0.000  0.485
    3
step  716
O  -0.000  -0.000  -0.062
H  0.725  0.000  0.490
H  -0.722  -0.000  0.489
    3
step  717
O  -0.000  0.000  -0.063
H  0.725  -0.000  0.498
H  -0.723  -0.000  0.497
    3
step  718
O  -0.000  -0.000  -0.064
H  0.730  0.000  0.508
H  -0.730  0.000  0.508
    3
step  719
O  0.000  -0.000  -0.066
H  0.741  0.000  0.522
H  -0.742  0.000  0.523
    3
step  720
O  0.000  0.000  -0.068
H  0.754  -0.000  0.536
H  -0.757  -0.000  0.538
    3
step  721
O  0.000  0.000  -0.070
H  0.768  -0.000  0.550
H  -0.772  -0.000  0.553
    3
step  722
O  0.000  -0.000  -0.071
H  0.781  0.000  0.562
H  -0.785  0.000  0.565
    3
step  723
O  0.000  -0.000  -0.072
H  0.792  0.000  0.572
H  -0.796  0.000  0.574
    3
step  724
O  0.000  -0.000  -0.073
H  0.799  0.000  0.577
H  -0.802  0.000  0.579
    3
step  725
O  0.000  0.000  -0.073
H  0.802  -0.000  0.578
H  -0.804  -0.000  0.579
    3
step  726
O  0.000  0.000  -0.072
H  0.801  -0.000  0.575
H  -0.802  -0.000  0.575
    3
step  727
O  -0.000  -0.000  -0.071
H  0.796  0.000  0.567
H  -0.796  0.000  0.567
    3
step  728
O  -0.000  0.000  -0.070
H  0.788  -0.000  0.556
H  -0.785  -0.000  0.555
    3
step  729
O  -0.000  -0.000  -0.068
H  0.776  0.000  0.542
H  -0.772  0.000  0.540
    3
step  730
O  -0.000  -0.000  -0.066
H  0.764  0.000  0.526
H  -0.758  -0.000  0.523
    3
step  731
O  -0.000  -0.000  -0.064
H  0.751  0.000  0.510
H  -0.745  0.000  0.506
    3
step  732
O  -0.000  -0.000  -0.062
H  0.741  0.000  0.495
H  -0.735  0.000  0.491
    3
step  733
O  -0.000  -0.000  -0.061
H  0.736  0.000  0.483
H  -0.731  0.000  0.479
    3
step  734
O  -0.000  0.000  -0.060
H  0.737  0.000  0.474
H  -0.733  -0.000  0.472
    3
step  735
O  -0.000  0.000  -0.059
H  0.744  -0.000  0.471
H  -0.743  -0.000  0.470
    3
step  736
O  0.000  0.000  -0.059
H  0.758  -0.000  0.471
H  -0.758  -0.000  0.472
    3
step  737
O  0.000  -0.000  -0.060
H  0.776  0.000  0.475
H  -0.778  0.000  0.477
    3
step  738
O  0.000  -0.000  -0.061
H  0.796  0.000  0.481
H  -0.800  0.000  0.483
    3
step  739
O  0.000  -0.000  -0.062
H  0.816  0.000  0.488
H  -0.820  0.000  0.490
    3
step  740
O  0.000  0.000  -0.062
H  0.834  -0.000  0.494
H  -0.838  -0.000  0.496
    3
step  741
O  0.000  -0.000  -0.063
H  0.848  0.000  0.498
H  -0.851  0.000  0.500
    3
step  742
O  0.000  0.000  -0.063
H  0.857  -0.000  0.500
H  -0.859  -0.000  0.501
    3
step  743
O  0.000  0.000  -0.063
H  0.860  -0.000  0.500
H  -0.861  0.000  0.500
    3
step  744
O  -0.000  0.000  -0.063
H  0.858  -0.000  0.498
H  -0.857  -0.000  0.497
    3
step  745
O  -0.000  0.000  -0.062
H  0.850  -0.000  0.493
H  -0.848  -0.000  0.491
    3
step  746
O  -0.000  -0.000  -0.061
H  0.838  0.000  0.486
H  -0.834  -0.000  0.484
    3
step  747
O  -0.000  0.000  -0.060
H  0.822  0.000  0.478
H  -0.816  -0.000  0.475
    3
step  748
O  -0.000  -0.000  -0.059
H  0.803  -0.000  0.470
H  -0.798  0.000  0.466
    3
step  749
O  -0.000  -0.000  -0.058
H  0.785  0.000  0.462
H  -0.780  0.000  0.459
    3
step  750
O  -0.000  0.000  -0.057
H  0.768  -0.000  0.457
H  -0.765  0.000  0.455
    3
step  751
O  -0.000  -0.000  -0.057
H  0.756  0.000  0.455
H  -0.754  0.000  0.454
    3
step  752
O  0.000  -0.000  -0.058
H  0.750  0.000  0.458
H  -0.751  -0.000  0.458
    3
step  753
O  0.000  -0.000  -0.059
H  0.750  0.000  0.465
H  -0.753  0.000  0.467
    3
step  754
O  0.000  0.000  -0.060
H  0.756  -0.000  0.476
H  -0.760  0.000  0.479
    3
step  755
O  0.000  0.000  -0.062
H  0.766  -0.000  0.491
H  -0.771  -0.000  0.494
    3
step  756
O  0.000  0.000  -0.064
H  0.778  -0.000  0.506
H  -0.783  -0.000  0.509
    3
step  757
O  0.000  -0.000  -0.066
H  0.790  0.000  0.521
H  -0.795  0.000  0.524
    3
step  758
O  0.000  0.000  -0.068
H  0.800  -0.000  0.535
H  -0.803  -0.000  0.537
    3
step  759
O  0.000  0.000  -0.069
H  0.807  -0.000  0.546
H  -0.809  -0.000  0.547
    3
step  760
O  -0.000  0.000  -0.070
H  0.811  -0.000  0.554
H  -0.810  -0.000  0.554
    3
step  761
O  -0.000  -0.000  -0.070
H  0.809  0.000  0.558
H  -0.808  0.000  0.557
    3
step  762
O  -0.000  0.000  -0.070
H  0.804  -0.000  0.558
H  -0.801  0.000  0.556
    3
step  763
O  -0.000  0.000  -0.070
H  0.795  -0.000  0.555
H  -0.790  -0.000  0.553
    3
step  764
O  -0.000  0.000  -0.069
H  0.782  0.000  0.549
H  -0.777  -0.000  0.546
    3
step  765
O  -0.000  0.000  -0.068
H  0.768  0.000  0.540
H  -0.763  -0.000  0.537
    3
step  766
O  -0.000  0.000  -0.067
H  0.753  -0.000  0.530
H  -0.748  -0.000  0.528
    3
step  767
O  -0.000  0.000  -0.065
H  0.739  0.000  0.520
H  -0.736  -0.000  0.518
    3
step  768
O  -0.000  0.000  -0.064
H  0.729  -0.000  0.512
H  -0.727  -0.000  0.511
    3
step  769
O  0.000  0.000  -0.064
H  0.723  -0.000  0.505
H  -0.723  -0.000  0.505
    3
step  770
O  0.000  0.000  -0.063
H  0.722  0.000  0.503
H  -0.724  -0.000  0.504
    3
step  771
O  0.000  -0.000  -0.064
H  0.728  0.000  0.503
H  -0.731  0.000  0.505
    3
step  772
O  0.000  -0.000  -0.064
H  0.739  -0.000  0.507
H  -0.743  0.000  0.509
    3
step  773
O  0.000  -0.000  -0.065
H  0.754  0.000  0.512
H  -0.757  -0.000  0.515
    3
step  774
O  0.000  0.000  -0.065
H  0.770  -0.000  0.519
H  -0.773  -0.000  0.521
    3
step  775
O  0.000  -0.000  -0.066
H  0.786  0.000  0.525
H  -0.788  0.000  0.526
    3
step  776
O  0.000  0.000  -0.067
H  0.801  -0.000  0.529
H  -0.801  0.000  0.530
    3
step  777
O  -0.000  -0.000  -0.067
H  0.812  0.000  0.532
H  -0.811  0.000  0.531
    3
step  778
O  -0.000  -0.000  -0.067
H  0.819  0.000  0.531
H  -0.817  0.000  0.530
    3
step  779
O  -0.000  0.000  -0.066
H  0.823  -0.000  0.528
H  -0.819  -0.000  0.526
    3
step  780
O  -0.000  -0.000  -0.066
H  0.822  0.000  0.523
H  -0.817  0.000  0.520
    3
step  781
O  -0.000  0.000  -0.065
H  0.816  -0.000  0.515
H  -0.812  -0.000  0.512
    3
step  782
O  -0.000  -0.000  -0.063
H  0.808  0.000  0.505
H  -0.803  0.000  0.502
    3
step  783
O  -0.000  0.000  -0.062
H  0.797  -0.000  0.494
H  -0.793  -0.000  0.491
    3
step  784
O  -0.000  0.000  -0.061
H  0.785  -0.000  0.483
H  -0.783  0.000  0.481
    3
step  785
O  -0.000  0.000  -0.060
H  0.774  -0.000  0.473
H  -0.773  -0.000  0.472
    3
step  786
O  0.000  0.000  -0.059
H  0.766  -0.000  0.465
H  -0.766  -0.000  0.466
    3
step  787
O  0.000  -0.000  -0.058
H  0.761  0.000  0.461
H  -0.763  0.000  0.462
    3
step  788
O  0.000  -0.000  -0.058
H  0.761  0.000  0.460
H  -0.764  -0.000  0.462
    3
step  789
O  0.000  0.000  -0.058
H  0.766  -0.000  0.463
H  -0.770  -0.000  0.465
    3
step  790
O  0.000  0.000  -0.059
H  0.775  -0.000  0.469
H  -0.778  -0.000  0.471
    3
step  791
O  0.000  0.000  -0.060
H  0.786  -0.000  0.478
H  -0.788  0.000  0.479
    3
step  792
O  0.000  0.000  -0.061
H  0.797  -0.000  0.487
H  -0.799  0.000  0.488
    3
step  793
O  0.000  0.000  -0.063
H  0.808  -0.000  0.497
H  -0.808  -0.000  0.497
    3
step  794
O  -0.000  -0.000  -0.064
H  0.817  0.000  0.506
H  -0.816  0.000  0.505
    3
step  795
O  -0.000  0.000  -0.064
H  0.823  -0.000  0.513
H  -0.820  -0.000  0.511
    3
step  796
O  -0.000  0.000  -0.065
H  0.824  0.000  0.518
H  -0.821  -0.000  0.515
    3
step  797
O  -0.000  -0.000  -0.065
H  0.822  0.000  0.520
H  -0.818  0.000  0.518
    3
step  798
O  -0.000  0.000  -0.065
H  0.815  -0.000  0.520
H  -0.811  -0.000  0.518
    3
step  799
O  -0.000  -0.000  -0.065
H  0.805  0.000  0.518
H  -0.801  0.000  0.516
    3
step  800
O  -0.000  -0.000  -0.065
H  0.793  -0.000  0.515
H  -0.790  0.000  0.513
    3
step  801
O  -0.000  -0.000  -0.064
H  0.778  0.000  0.510
H  -0.776  0.000  0.509
    3
step  802
O  -0.000  0.000  -0.064
H  0.764  -0.000  0.505
H  -0.764  -0.000  0.505
    3
step  803
O  0.000  0.000  -0.063
H  0.751  -0.000  0.501
H  -0.752  -0.000  0.501
    3
step  804
O  0.000  0.000  -0.063
H  0.741  -0.000  0.498
H  -0.743  -0.000  0.500
    3
step  805
O  0.000  0.000  -0.063
H  0.735  -0.000  0.498
H  -0.738  -0.000  0.500
    3
step  806
O  0.000  0.000  -0.063
H  0.734  -0.000  0.501
H  -0.738  -0.000  0.503
    3
step  807
O  0.000  0.000  -0.064
H  0.738  -0.000  0.507
H  -0.741  -0.000  0.509
    3
step  808
O  0.000  0.000  -0.065
H  0.745  -0.000  0.515
H  -0.748  -0.000  0.516
    3
step  809
O  0.000  -0.000  -0.066
H  0.756  0.000  0.523
H  -0.756  -0.000  0.524
    3
step  810
O  -0.000  -0.000  -0.067
H  0.767  0.000  0.532
H  -0.766  0.000  0.532
    3
step  811
O  -0.000  -0.000  -0.068
H  0.777  0.000  0.540
H  -0.775  0.000  0.539
    3
step  812
O  -0.000  0.000  -0.069
H  0.786  0.000  0.546
H  -0.783  -0.000  0.544
    3
step  813
O  -0.000  0.000  -0.069
H  0.793  -0.000  0.549
H  -0.789  -0.000  0.547
    3
step  814
O  -0.000  -0.000  -0.069
H  0.797  0.000  0.550
H  -0.792  0.000  0.547
    3
step  815
O  -0.000  0.000  -0.069
H  0.797  -0.000  0.547
H  -0.792  -0.000  0.545
    3
step  816
O  -0.000  -0.000  -0.068
H  0.794  -0.000  0.542
H  -0.790  0.000  0.540
    3
step  817
O  -0.000  -0.000  -0.067
H  0.788  0.000  0.534
H  -0.785  0.000  0.533
    3
step  818
O  -0.000  0.000  -0.066
H  0.780  -0.000  0.525
H  -0.778  -0.000  0.524
    3
step  819
O  -0.000  -0.000  -0.065
H  0.771  0.000  0.514
H  -0.771  0.000  0.514
    3
step  820
O  0.000  -0.000  -0.063
H  0.762  0.000  0.503
H  -0.763  0.000  0.504
    3
step  821
O  0.000  0.000  -0.062
H  0.755  -0.000  0.493
H  -0.757  -0.000  0.494
    3
step  822
O  0.000  0.000  -0.061
H  0.751  -0.000  0.485
H  -0.754  -0.000  0.487
    3
step  823
O  0.000  0.000  -0.061
H  0.751  -0.000  0.480
H  -0.754  -0.000  0.482
    3
step  824
O  0.000  -0.000  -0.060
H  0.755  0.000  0.478
H  -0.758  0.000  0.480
    3
step  825
O  0.000  0.000  -0.060
H  0.764  -0.000  0.479
H  -0.765  -0.000  0.480
    3
step  826
O  0.000  0.000  -0.061
H  0.775  -0.000  0.482
H  -0.776  -0.000  0.483
    3
step  827
O  -0.000  -0.000  -0.061
H  0.788  -0.000  0.487
H  -0.787  0.000  0.487
    3
step  828
O  -0.000  0.000  -0.062
H  0.801  -0.000  0.493
H  -0.799  -0.000  0.491
    3
step  829
O  -0.000  0.000  -0.063
H  0.813  -0.000  0.498
H  -0.809  0.000  0.496
    3
step  830
O  -0.000  0.000  -0.063
H  0.822  -0.000  0.502
H  -0.818  -0.000  0.499
    3
step  831
O  -0.000  -0.000  -0.063
H  0.828  0.000  0.504
H  -0.824  0.000  0.502
    3
step  832
O  -0.000  -0.000  -0.063
H  0.829  -0.000  0.505
H  -0.826  0.000  0.503
    3
step  833
O  -0.000  -0.000  -0.063
H  0.827  0.000  0.504
H  -0.824  0.000  0.502
    3
step  834
O  -0.000  -0.000  -0.063
H  0.821  0.000  0.501
H  -0.819  0.000  0.499
    3
step  835
O  -0.000  -0.000  -0.062
H  0.812  0.000  0.496
H  -0.811  0.000  0.496
    3
step  836
O  0.000  0.000  -0.062
H  0.800  -0.000  0.491
H  -0.801  -0.000  0.491
    3
step  837
O  0.000  0.000  -0.061
H  0.787  -0.000  0.485
H  -0.789  -0.000  0.486
    3
step  838
O  0.000  -0.000  -0.061
H  0.775  0.000  0.480
H  -0.778  0.000  0.482
    3
step  839
O  0.000  0.000  -0.060
H  0.764  -0.000  0.477
H  -0.767  -0.000  0.479
    3
step  840
O  0.000  0.000  -0.060
H  0.756  -0.000  0.476
H  -0.760  -0.000  0.478
    3
step  841
O  0.000  -0.000  -0.060
H  0.752  0.000  0.478
H  -0.755  0.000  0.480
    3
step  842
O  0.000  -0.000  -0.061
H  0.753  0.000  0.484
H  -0.755  0.000  0.485
    3
step  843
O  0.000  0.000  -0.062
H  0.758  -0.000  0.492
H  -0.758  -0.000  0.492
    3
step  844
O  -0.000  -0.000  -0.063
H  0.765  -0.000  0.502
H  -0.764  0.000  0.501
    3
step  845
O  -0.000  -0.000  -0.064
H  0.773  -0.000  0.513
H  -0.771  0.000  0.511
    3
step  846
O  -0.000  0.000  -0.066
H  0.782  -0.000  0.523
H  -0.779  -0.000  0.521
    3
step  847
O  -0.000  0.000  -0.067
H  0.790  -0.000  0.533
H  -0.786  -0.000  0.531
    3
step  848
O  -0.000  -0.000  -0.068
H  0.795  0.000  0.541
H  -0.791  0.000  0.538
    3
step  849
O  -0.000  0.000  -0.069
H  0.797  -0.000  0.546
H  -0.794  -0.000  0.544
    3
step  850
O  -0.000  0.000  -0.069
H  0.797  0.000  0.548
H  -0.794  -0.000  0.547
    3
step  851
O  -0.000  -0.000  -0.069
H  0.793  0.000  0.548
H  -0.791  0.000  0.547
    3
step  852
O  -0.000  0.000  -0.069
H  0.786  -0.000  0.545
H  -0.785  -0.000  0.544
    3
step  853
O  0.000  -0.000  -0.068
H  0.776  0.000  0.539
H  -0.777  0.000  0.540
    3
step  854
O  0.000  -0.000  -0.067
H  0.766  0.000  0.532
H  -0.768  0.000  0.533
    3
step  855
O  0.000  -0.000  -0.066
H  0.755  0.000  0.523
H  -0.758  -0.000  0.525
    3
step  856
O  0.000  -0.000  -0.065
H  0.745  0.000  0.515
H  -0.748  0.000  0.517
    3
step  857
O  0.000  0.000  -0.064
H  0.737  -0.000  0.508
H  -0.741  -0.000  0.510
    3
step  858
O  0.000  0.000  -0.063
H  0.734  -0.000  0.503
H  -0.736  0.000  0.504
    3
step  859
O  0.000  -0.000  -0.063
H  0.735  0.000  0.500
H  -0.736  -0.000  0.501
    3
step  860
O  -0.000  0.000  -0.063
H  0.741  -0.000  0.500
H  -0.741  -0.000  0.500
    3
step  861
O  -0.000  -0.000  -0.063
H  0.750  0.000  0.503
H  -0.749  0.000  0.502
    3
step  862
O  -0.000  0.000  -0.064
H  0.763  -0.000  0.507
H  -0.760  -0.000  0.506
    3
step  863
O  -0.000  -0.000  -0.064
H  0.777  0.000  0.512
H  -0.773  0.000  0.510
    3
step  864
O  -0.000  -0.000  -0.065
H  0.791  0.000  0.517
H  -0.787  0.000  0.514
    3
step  865
O  -0.000  -0.000  -0.065
H  0.803  0.000  0.520
H  -0.799  0.000  0.518
    3
step  866
O  -0.000  -0.000  -0.066
H  0.813  0.000  0.522
H  -0.809  0.000  0.520
    3
step  867
O  -0.000  -0.000  -0.066
H  0.819  0.000  0.522
H  -0.817  0.000  0.520
    3
step  868
O  -0.000  0.000  -0.065
H  0.821  0.000  0.519
H  -0.820  -0.000  0.518
    3
step  869
O  0.000  0.000  -0.065
H  0.820  -0.000  0.514
H  -0.820  -0.000  0.514
    3
step  870
O  0.000  -0.000  -0.064
H  0.815  0.000  0.507
H  -0.816  0.000  0.508
    3
step  871
O  0.000  -0.000  -0.063
H  0.807  0.000  0.498
H  -0.809  0.000  0.500
    3
step  872
O  0.000  0.000  -0.062
H  0.797  0.000  0.489
H  -0.800  -0.000  0.491
    3
step  873
O  0.000  0.000  -0.061
H  0.786  -0.000  0.479
H  -0.789  -0.000  0.481
    3
step  874
O  0.000  -0.000  -0.059
H  0.775  0.000  0.471
H  -0.779  0.000  0.473
    3
step  875
O  0.000  -0.000  -0.059
H  0.767  0.000  0.464
H  -0.770  0.000  0.466
    3
step  876
O  0.000  0.000  -0.058
H  0.763  -0.000  0.461
H  -0.764  -0.000  0.462
    3
step  877
O  -0.000  -0.000  -0.058
H  0.763  -0.000  0.461
H  -0.762  0.000  0.461
    3
step  878
O  -0.000  0.000  -0.058
H  0.767  -0.000  0.465
H  -0.765  -0.000  0.464
    3
step  879
O  -0.000  -0.000  -0.059
H  0.775  -0.000  0.471
H  -0.772  0.000  0.470
    3
step  880
O  -0.000  0.000  -0.060
H  0.785  -0.000  0.480
H  -0.782  -0.000  0.478
    3
step  881
O  -0.000  0.000  -0.062
H  0.797  -0.000  0.491
H  -0.793  0.000  0.488
    3
step  882
O  -0.000  0.000  -0.063
H  0.807  -0.000  0.501
H  -0.804  -0.000  0.499
    3
step  883
O  -0.000  -0.000  -0.064
H  0.815  0.000  0.510
H  -0.813  0.000  0.509
    3
step  884
O  -0.000  -0.000  -0.065
H  0.821  0.000  0.518
H  -0.819  -0.000  0.517
    3
step  885
O  -0.000  0.000  -0.066
H  0.822  -0.000  0.524
H  -0.822  -0.000  0.524
    3
step  886
O  0.000  -0.000  -0.066
H  0.820  0.000  0.527
H  -0.821  0.000  0.528
    3
step  887
O  0.000  0.000  -0.067
H  0.813  -0.000  0.528
H  -0.816  -0.000  0.529
    3
step  888
O  0.000  -0.000  -0.066
H  0.803  0.000  0.526
H  -0.807  0.000  0.528
    3
step  889
O  0.000  0.000  -0.066
H  0.790  0.000  0.522
H  -0.794  -0.000  0.525
    3
step  890
O  0.000  0.000  -0.065
H  0.774  0.000  0.517
H  -0.779  -0.000  0.520
    3
step  891
O  0.000  0.000  -0.065
H  0.759  -0.000  0.511
H  -0.763  -0.000  0.514
    3
step  892
O  0.000  -0.000  -0.064
H  0.745  0.000  0.506
H  -0.748  0.000  0.508
    3
step  893
O  0.000  -0.000  -0.063
H  0.733  0.000  0.503
H  -0.735  0.000  0.504
    3
step  894
O  -0.000  0.000  -0.063
H  0.727  -0.000  0.502
H  -0.726  0.000  0.502
    3
step  895
O  -0.000  -0.000  -0.063
H  0.725  0.000  0.504
H  -0.723  0.000  0.503
    3
step  896
O  -0.000  0.000  -0.064
H  0.729  0.000  0.510
H  -0.725  -0.000  0.508
    3
step  897
O  -0.000  -0.000  -0.065
H  0.738  0.000  0.518
H  -0.733  0.000  0.515
    3
step  898
O  -0.000  0.000  -0.066
H  0.749  -0.000  0.527
H  -0.745  -0.000  0.525
    3
step  899
O  -0.000  0.000  -0.068
H  0.763  0.000  0.537
H  -0.759  -0.000  0.535
    3
step  900
O  -0.000  0.000  -0.069
H  0.776  -0.000  0.546
H  -0.774  -0.000  0.544
    3
step  901
O  -0.000  0.000  -0.070
H  0.788  -0.000  0.553
H  -0.787  -0.000  0.552
    3
step  902
O  0.000  -0.000  -0.070
H  0.798  0.000  0.557
H  -0.798  0.000  0.557
    3
step  903
O  0.000  0.000  -0.070
H  0.804  -0.000  0.558
H  -0.806  -0.000  0.559
    3
step  904
O  0.000  -0.000  -0.070
H  0.806  -0.000  0.555
H  -0.809  0.000  0.557
    3
step  905
O  0.000  0.000  -0.069
H  0.805  -0.000  0.549
H  -0.809  -0.000  0.552
    3
step  906
O  0.000  0.000  -0.068
H  0.799  -0.000  0.540
H  -0.804  -0.000  0.543
    3
step  907
O  0.000  0.000  -0.067
H  0.791  -0.000  0.528
H  -0.796  -0.000  0.531
    3
step  908
O  0.000  -0.000  -0.065
H  0.781  0.000  0.514
H  -0.785  0.000  0.516
    3
step  909
O  0.000  0.000  -0.063
H  0.770  -0.000  0.499
H  -0.773  -0.000  0.501
    3
step  910
O  0.000  0.000  -0.061
H  0.760  -0.000  0.485
H  -0.761  -0.000  0.486
    3
step  911
O  -0.000  0.000  -0.060
H  0.753  -0.000  0.473
H  -0.752  -0.000  0.472
    3
step  912
O  -0.000  0.000  -0.058
H  0.750  -0.000  0.464
H  -0.747  -0.000  0.462
    3
step  913
O  -0.000  0.000  -0.058
H  0.754  -0.000  0.459
H  -0.749  -0.000  0.457
    3
step  914
O  -0.000  0.000  -0.058
H  0.763  -0.000  0.459
H  -0.758  -0.000  0.456
    3
step  915
O  -0.000  0.000  -0.058
H  0.777  -0.000  0.462
H  -0.772  -0.000  0.459
    3
step  916
O  -0.000  -0.000  -0.059
H  0.794  0.000  0.468
H  -0.790  0.000  0.465
    3
step  917
O  -0.000  0.000  -0.060
H  0.812  -0.000  0.475
H  -0.810  -0.000  0.473
    3
step  918
O  -0.000  0.000  -0.061
H  0.829  -0.000  0.482
H  -0.828  -0.000  0.482
    3
step  919
O  0.000  0.000  -0.062
H  0.843  -0.000  0.489
H  -0.844  -0.000  0.490
    3
step  920
O  0.000  -0.000  -0.062
H  0.852  0.000  0.494
H  -0.856  0.000  0.496
    3
step  921
O  0.000  0.000  -0.063
H  0.858  -0.000  0.497
H  -0.862  -0.000  0.500
    3
step  922
O  0.000  0.000  -0.063
H  0.857  -0.000  0.498
H  -0.863  -0.000  0.501
    3
step  923
O  0.000  0.000  -0.063
H  0.851  -0.000  0.496
H  -0.858  0.000  0.500
    3
step  924
O  0.000  0.000  -0.062
H  0.841  -0.000  0.493
H  -0.847  -0.000  0.496
    3
step  925
O  0.000  0.000  -0.062
H  0.825  -0.000  0.487
H  -0.831  -0.000  0.491
    3
step  926
O  0.000  -0.000  -0.061
H  0.807  -0.000  0.481
H  -0.811  0.000  0.483
    3
step  927
O  0.000  -0.000  -0.060
H  0.788  0.000  0.475
H  -0.790  0.000  0.476
    3
step  928
O  -0.000  0.000  -0.059
H  0.769  -0.000  0.470
H  -0.769  -0.000  0.469
    3
step  929
O  -0.000  -0.000  -0.059
H  0.753  0.000  0.467
H  -0.751  0.000  0.466
    3
step  930
O  -0.000  0.000  -0.059
H  0.743  -0.000  0.468
H  -0.739  -0.000  0.466
    3
step  931
O  -0.000  0.000  -0.060
H  0.738  -0.000  0.474
H  -0.733  0.000  0.471
    3
step  932
O  -0.000  -0.000  -0.061
H  0.740  0.000  0.484
H  -0.736  0.000  0.481
    3
step  933
O  -0.000  0.000  -0.063
H  0.748  -0.000  0.498
H  -0.744  -0.000  0.496
    3
step  934
O  -0.000  0.000  -0.065
H  0.759  0.000  0.514
H  -0.757  -0.000  0.513
    3
step  935
O  0.000  0.000  -0.067
H  0.771  -0.000  0.530
H  -0.772  -0.000  0.530
    3
step  936
O  0.000  -0.000  -0.069
H  0.783  0.000  0.545
H  -0.786  0.000  0.547
    3
step  937
O  0.000  -0.000  -0.071
H  0.793  0.000  0.558
H  -0.798  -0.000  0.561
    3
step  938
O  0.000  -0.000  -0.072
H  0.800  0.000  0.568
H  -0.806  0.000  0.571
    3
step  939
O  0.000  -0.000  -0.073
H  0.803  0.000  0.574
H  -0.810  -0.000  0.578
    3
step  940
O  0.000  -0.000  -0.073
H  0.802  -0.000  0.575
H  -0.809  0.000  0.580
    3
step  941
O  0.000  -0.000  -0.072
H  0.797  0.000  0.573
H  -0.803  0.000  0.577
    3
step  942
O  0.000  -0.000  -0.072
H  0.788  0.000  0.566
H  -0.793  0.000  0.569
    3
step  943
O  0.000  0.000  -0.070
H  0.776  -0.000  0.556
H  -0.780  -0.000  0.558
    3
step  944
O  0.000  0.000  -0.069
H  0.762  0.000  0.543
H  -0.764  -0.000  0.545
    3
step  945
O  -0.000  0.000  -0.067
H  0.748  -0.000  0.529
H  -0.748  -0.000  0.529
    3
step  946
O  -0.000  0.000  -0.065
H  0.736  -0.000  0.515
H  -0.733  -0.000  0.514
    3
step  947
O  -0.000  -0.000  -0.063
H  0.727  0.000  0.503
H  -0.722  0.000  0.501
    3
step  948
O  -0.000  -0.000  -0.062
H  0.724  0.000  0.494
H  -0.718  -0.000  0.491
    3
step  949
O  -0.000  0.000  -0.061
H  0.727  -0.000  0.489
H  -0.721  -0.000  0.486
    3
step  950
O  -0.000  0.000  -0.061
H  0.737  -0.000  0.489
H  -0.732  0.000  0.486
    3
step  951
O  -0.000  0.000  -0.062
H  0.752  -0.000  0.491
H  -0.749  -0.000  0.490
    3
step  952
O  -0.000  -0.000  -0.063
H  0.770  0.000  0.496
H  -0.770  0.000  0.496
    3
step  953
O  0.000  0.000  -0.063
H  0.790  -0.000  0.502
H  -0.792  -0.000  0.503
    3
step  954
O  0.000  0.000  -0.064
H  0.809  -0.000  0.508
H  -0.813  -0.000  0.510
    3
step  955
O  0.000  -0.000  -0.065
H  0.825  0.000  0.512
H  -0.831  -0.000  0.515
    3
step  956
O  0.000  -0.000  -0.065
H  0.838  -0.000  0.514
H  -0.844  0.000  0.517
    3
step  957
O  0.000  -0.000  -0.065
H  0.845  0.000  0.513
H  -0.851  0.000  0.517
    3
step  958
O  0.000  0.000  -0.064
H  0.847  -0.000  0.510
H  -0.853  -0.000  0.514
    3
step  959
O  0.000  -0.000  -0.064
H  0.844  -0.000  0.504
H  -0.849  0.000  0.507
    3
step  960
O  0.000  -0.000  -0.063
H  0.837  0.000  0.497
H  -0.840  -0.000  0.499
    3
step  961
O  0.000  0.000  -0.061
H  0.825  0.000  0.487
H  -0.826  -0.000  0.488
    3
step  962
O  -0.000  -0.000  -0.060
H  0.811  0.000  0.477
H  -0.810  0.000  0.477
    3
step  963
O  -0.000  0.000  -0.059
H  0.795  -0.000  0.467
H  -0.792  -0.000  0.465
    3
step  964
O  -0.000  -0.000  -0.058
H  0.780  0.000  0.458
H  -0.776  0.000  0.456
    3
step  965
O  -0.000  0.000  -0.057
H  0.768  -0.000  0.452
H  -0.764  -0.000  0.450
    3
step  966
O  -0.000  0.000  -0.057
H  0.761  0.000  0.450
H  -0.757  -0.000  0.448
    3
step  967
O  -0.000  -0.000  -0.057
H  0.759  0.000  0.453
H  -0.756  -0.000  0.451
    3
step  968
O  -0.000  0.000  -0.058
H  0.763  -0.000  0.459
H  -0.762  -0.000  0.458
    3
step  969
O  0.000  -0.000  -0.059
H  0.772  0.000  0.469
H  -0.772  0.000  0.469
    3
step  970
O  0.000  -0.000  -0.061
H  0.783  0.000  0.481
H  -0.785  0.000  0.483
    3
step  971
O  0.000  -0.000  -0.062
H  0.794  0.000  0.495
H  -0.799  0.000  0.497
    3
step  972
O  0.000  0.000  -0.064
H  0.805  -0.000  0.508
H  -0.811  0.000  0.511
    3
step  973
O  0.000  0.000  -0.066
H  0.814  -0.000  0.519
H  -0.820  -0.000  0.523
    3
step  974
O  0.000  0.000  -0.067
H  0.819  -0.000  0.528
H  -0.825  0.000  0.532
    3
step  975
O  0.000  0.000  -0.068
H  0.820  0.000  0.535
H  -0.825  -0.000  0.538
    3
step  976
O  0.000  -0.000  -0.068
H  0.817  0.000  0.538
H  -0.820  0.000  0.541
    3
step  977
O  0.000  -0.000  -0.068
H  0.809  0.000  0.539
H  -0.812  0.000  0.540
    3
step  978
O  0.000  -0.000  -0.068
H  0.798  0.000  0.536
H  -0.799  -0.000  0.537
    3
step  979
O  -0.000  0.000  -0.067
H  0.785  -0.000  0.532
H  -0.784  -0.000  0.531
    3
step  980
O  -0.000  0.000  -0.066
H  0.770  -0.000  0.525
H  -0.767  0.000  0.524
    3
step  981
O  -0.000  0.000  -0.065
H  0.754  -0.000  0.518
H  -0.751  -0.000  0.516
    3
step  982
O  -0.000  0.000  -0.064
H  0.741  0.000  0.512
H  -0.737  -0.000  0.509
    3
step  983
O  -0.000  0.000  -0.064
H  0.731  -0.000  0.507
H  -0.727  -0.000  0.505
    3
step  984
O  -0.000  -0.000  -0.063
H  0.725  0.000  0.505
H  -0.722  -0.000  0.503
    3
step  985
O  -0.000  0.000  -0.064
H  0.725  -0.000  0.506
H  -0.724  -0.000  0.505
    3
step  986
O  0.000  -0.000  -0.064
H  0.731  0.000  0.510
H  -0.731  0.000  0.510
    3
step  987
O  0.000  0.000  -0.065
H  0.740  -0.000  0.516
H  -0.742  0.000  0.517
    3
step  988
O  0.000  -0.000  -0.066
H  0.753  0.000  0.523
H  -0.756  -0.000  0.525
    3
step  989
O  0.000  -0.000  -0.067
H  0.767  0.000  0.531
H  -0.771  0.000  0.533
    3
step  990
O  0.000  -0.000  -0.068
H  0.780  0.000  0.538
H  -0.785  0.000  0.540
    3
step  991
O  0.000  0.000  -0.068
H  0.792  0.000  0.542
H  -0.796  -0.000  0.545
    3
step  992
O  0.000  -0.000  -0.069
H  0.801  0.000  0.545
H  -0.804  -0.000  0.547
    3
step  993
O  0.000  0.000  -0.069
H  0.807  -0.000  0.544
H  -0.809  0.000  0.545
    3
step  994
O  0.000  -0.000  -0.068
H  0.808  0.000  0.540
H  -0.809  -0.000  0.541
    3
step  995
O  -0.000  0.000  -0.067
H  0.807  -0.000  0.534
H  -0.806  -0.000  0.534
    3
step  996
O  -0.000  0.000  -0.066
H  0.801  -0.000  0.525
H  -0.800  -0.000  0.524
    3
step  997
O  -0.000  0.000  -0.065
H  0.794  -0.000  0.514
H  -0.791  0.000  0.513
    3
step  998
O  -0.000  -0.000  -0.063
H  0.784  0.000  0.503
H  -0.780  -0.000  0.500
    3
step  999
O  -0.000  -0.000  -0.062
H  0.774  0.000  0.491
H  -0.770  0.000  0.488
    3
step 1000
O  -0.000  0.000  -0.060
H  0.765  -0.000  0.480
H  -0.762  -0.000  0.478
    3
step 1001
O  -0.000  -0.000  -0.059
H  0.760  0.000  0.471
H  -0.757  0.000  0.470
    3
step 1002
O  -0.000  0.000  -0.059
H  0.758  0.000  0.466
H  -0.756  -0.000  0.465
    3
step 1003
O  0.000  0.000  -0.059
H  0.760  0.000  0.464
H  -0.761  -0.000  0.465
    3
step 1004
O  0.000  -0.000  -0.059
H  0.768  -0.000  0.466
H  -0.770  0.000  0.467
    3
step 1005
O  0.000  0.000  -0.059
H  0.778  -0.000  0.471
H  -0.782  -0.000  0.473
    3
step 1006
O  0.000  0.000  -0.060
H  0.791  -0.000  0.477
H  -0.795  0.000  0.480
    3
step 1007
O  0.000  -0.000  -0.061
H  0.804  0.000  0.485
H  -0.808  -0.000  0.487
    3
step 1008
O  0.000  0.000  -0.062
H  0.816  -0.000  0.492
H  -0.820  -0.000  0.494
    3
step 1009
O  0.000  0.000  -0.063
H  0.825  0.000  0.499
H  -0.828  -0.000  0.501
    3
step 1010
O  0.000  0.000  -0.064
H  0.831  -0.000  0.504
H  -0.833  -0.000  0.505
    3
step 1011
O  0.000  -0.000  -0.064
H  0.833  0.000  0.507
H  -0.833  0.000  0.507
    3
step 1012
O  -0.000  -0.000  -0.064
H  0.831  0.000  0.508
H  -0.829  0.000  0.508
    3
step 1013
O  -0.000  -0.000  -0.064
H  0.824  0.000  0.507
H  -0.822  0.000  0.506
    3
step 1014
O  -0.000  0.000  -0.063
H  0.814  0.000  0.505
H  -0.810  0.000  0.503
    3
step 1015
O  -0.000  0.000  -0.063
H  0.800  -0.000  0.500
H  -0.797  -0.000  0.498
    3
step 1016
O  -0.000  0.000  -0.062
H  0.785  0.000  0.495
H  -0.782  -0.000  0.493
    3
step 1017
O  -0.000  -0.000  -0.062
H  0.770  -0.000  0.491
H  -0.767  0.000  0.489
    3
step 1018
O  -0.000  0.000  -0.061
H  0.757  -0.000  0.487
H  -0.755  -0.000  0.486
    3
step 1019
O  -0.000  0.000  -0.061
H  0.746  -0.000  0.486
H  -0.746  -0.000  0.486
    3
step 1020
O  0.000  -0.000  -0.062
H  0.740  0.000  0.488
H  -0.742  0.000  0.489
    3
step 1021
O  0.000  -0.000  -0.062
H  0.739  0.000  0.493
H  -0.742  0.000  0.494
    3
step 1022
O  0.000  -0.000  -0.063
H  0.743  0.000  0.501
H  -0.747  0.000  0.503
    3
step 1023
O  0.000  -0.000  -0.065
H  0.751  0.000  0.511
H  -0.755  0.000  0.513
    3
step 1024
O  0.000  -0.000  -0.066
H  0.760  0.000  0.522
H  -0.764  0.000  0.524
    3
step 1025
O  0.000  0.000  -0.067
H  0.771  -0.000  0.533
H  -0.774  -0.000  0.535
    3
step 1026
O  0.000  0.000  -0.069
H  0.781  -0.000  0.543
H  -0.783  -0.000  0.544
    3
step 1027
O  0.000  0.000  -0.069
H  0.788  -0.000  0.551
H  -0.789  -0.000  0.551
    3
step 1028
O  -0.000  -0.000  -0.070
H  0.794  0.000  0.556
H  -0.793  0.000  0.555
    3
step 1029
O  -0.000  -0.000  -0.070
H  0.796  0.000  0.558
H  -0.794  0.000  0.556
    3
step 1030
O  -0.000  0.000  -0.070
H  0.794  -0.000  0.556
H  -0.791  -0.000  0.554
    3
step 1031
O  -0.000  -0.000  -0.069
H  0.789  0.000  0.551
H  -0.785  0.000  0.549
    3
step 1032
O  -0.000  0.000  -0.068
H  0.781  -0.000  0.544
H  -0.777  -0.000  0.541
    3
step 1033
O  -0.000  0.000  -0.067
H  0.772  -0.000  0.534
H  -0.768  -0.000  0.532
    3
step 1034
O  -0.000  0.000  -0.066
H  0.761  -0.000  0.523
H  -0.758  -0.000  0.521
    3
step 1035
O  -0.000  -0.000  -0.064
H  0.751  0.000  0.512
H  -0.749  0.000  0.510
    3
step 1036
O  -0.000  -0.000  -0.063
H  0.743  0.000  0.501
H  -0.742  0.000  0.501
    3
step 1037
O  0.000  0.000  -0.062
H  0.739  -0.000  0.493
H  -0.740  -0.000  0.494
    3
step 1038
O  0.000  0.000  -0.062
H  0.739  -0.000  0.488
H  -0.742  -0.000  0.490
    3
step 1039
O  0.000  -0.000  -0.061
H  0.745  0.000  0.486
H  -0.748  0.000  0.488
    3
step 1040
O  0.000  0.000  -0.062
H  0.755  -0.000  0.487
H  -0.759  0.000  0.490
    3
step 1041
O  0.000  -0.000  -0.062
H  0.769  0.000  0.491
H  -0.772  -0.000  0.493
    3
step 1042
O  0.000  0.000  -0.063
H  0.784  0.000  0.496
H  -0.787  -0.000  0.497
    3
step 1043
O  0.000  -0.000  -0.063
H  0.800  0.000  0.501
H  -0.801  0.000  0.502
    3
step 1044
O  -0.000  -0.000  -0.064
H  0.813  0.000  0.506
H  -0.813  0.000  0.506
    3
step 1045
O  -0.000  0.000  -0.064
H  0.824  -0.000  0.509
H  -0.823  -0.000  0.508
    3
step 1046
O  -0.000  -0.000  -0.064
H  0.832  0.000  0.510
H  -0.829  0.000  0.508
    3
step 1047
O  -0.000  0.000  -0.064
H  0.835  -0.000  0.509
H  -0.831  -0.000  0.507
    3
step 1048
O  -0.000  0.000  -0.064
H  0.833  -0.000  0.506
H  -0.829  -0.000  0.503
    3
step 1049
O  -0.000  0.000  -0.063
H  0.827  -0.000  0.500
H  -0.823  -0.000  0.498
    3
step 1050
O  -0.000  0.000  -0.062
H  0.818  -0.000  0.494
H  -0.814  -0.000  0.491
    3
step 1051
O  -0.000  0.000  -0.061
H  0.805  -0.000  0.486
H  -0.802  -0.000  0.484
    3
step 1052
O  -0.000  -0.000  -0.060
H  0.791  0.000  0.477
H  -0.790  0.000  0.476
    3
step 1053
O  -0.000  0.000  -0.059
H  0.778  -0.000  0.470
H  -0.778  -0.000  0.470
    3
step 1054
O  0.000  0.000  -0.059
H  0.767  -0.000  0.465
H  -0.768  -0.000  0.466
    3
step 1055
O  0.000  0.000  -0.058
H  0.759  -0.000  0.463
H  -0.762  -0.000  0.465
    3
step 1056
O  0.000  0.000  -0.059
H  0.756  -0.000  0.464
H  -0.760  -0.000  0.467
    3
step 1057
O  0.000  0.000  -0.059
H  0.758  0.000  0.470
H  -0.762  -0.000  0.472
    3
step 1058
O  0.000  0.000  -0.060
H  0.764  -0.000  0.478
H  -0.768  -0.000  0.480
    3
step 1059
O  0.000  0.000  -0.062
H  0.774  -0.000  0.489
H  -0.776  -0.000  0.491
    3
step 1060
O  0.000  0.000  -0.063
H  0.784  -0.000  0.502
H  -0.785  -0.000  0.502
    3
step 1061
O  -0.000  0.000  -0.065
H  0.795  -0.000  0.514
H  -0.794  -0.000  0.514
    3
step 1062
O  -0.000  0.000  -0.066
H  0.804  -0.000  0.525
H  -0.802  0.000  0.524
    3
step 1063
O  -0.000  0.000  -0.067
H  0.810  -0.000  0.534
H  -0.806  -0.000  0.532
    3
step 1064
O  -0.000  -0.000  -0.068
H  0.812  0.000  0.540
H  -0.808  0.000  0.538
    3
step 1065
O  -0.000  0.000  -0.068
H  0.810  -0.000  0.544
H  -0.806  -0.000  0.541
    3
step 1066
O  -0.000  -0.000  -0.068
H  0.804  0.000  0.544
H  -0.800  0.000  0.542
    3
step 1067
O  -0.000  0.000  -0.068
H  0.795  -0.000  0.542
H  -0.791  -0.000  0.540
    3
step 1068
O  -0.000  0.000  -0.068
H  0.782  -0.000  0.537
H  -0.780  -0.000  0.535
    3
step 1069
O  -0.000  -0.000  -0.067
H  0.768  0.000  0.530
H  -0.767  0.000  0.529
    3
step 1070
O  0.000  0.000  -0.066
H  0.754  -0.000  0.522
H  -0.754  -0.000  0.522
    3
step 1071
O  0.000  0.000  -0.065
H  0.740  -0.000  0.514
H  -0.742  -0.000  0.515
    3
step 1072
O  0.000  0.000  -0.064
H  0.730  -0.000  0.508
H  -0.733  0.000  0.510
    3
step 1073
O  0.000  0.000  -0.064
H  0.725  -0.000  0.504
H  -0.728  -0.000  0.506
    3
step 1074
O  0.000  0.000  -0.064
H  0.724  -0.000  0.503
H  -0.728  -0.000  0.506
    3
step 1075
O  0.000  0.000  -0.064
H  0.730  0.000  0.506
H  -0.733  -0.000  0.508
    3
step 1076
O  0.000  0.000  -0.064
H  0.740  -0.000  0.511
H  -0.742  -0.000  0.512
    3
step 1077
O  0.000  0.000  -0.065
H  0.754  -0.000  0.518
H  -0.754  -0.000  0.518
    3
step 1078
O  -0.000  0.000  -0.066
H  0.769  0.000  0.526
H  -0.768  -0.000  0.525
    3
step 1079
O  -0.000  0.000  -0.067
H  0.784  -0.000  0.532
H  -0.782  0.000  0.531
    3
step 1080
O  -0.000  0.000  -0.068
H  0.798  0.000  0.537
H  -0.794  -0.000  0.535
    3
step 1081
O  -0.000  0.000  -0.068
H  0.808  -0.000  0.540
H  -0.804  -0.000  0.537
    3
step 1082
O  -0.000  0.000  -0.068
H  0.815  -0.000  0.540
H  -0.810  -0.000  0.537
    3
step 1083
O  -0.000  -0.000  -0.067
H  0.818  0.000  0.536
H  -0.813  -0.000  0.534
    3
step 1084
O  -0.000  -0.000  -0.067
H  0.816  0.000  0.530
H  -0.812  -0.000  0.528
    3
step 1085
O  -0.000  0.000  -0.066
H  0.811  -0.000  0.521
H  -0.808  -0.000  0.520
    3
step 1086
O  -0.000  0.000  -0.064
H  0.802  -0.000  0.510
H  -0.800  -0.000  0.510
    3
step 1087
O  0.000  -0.000  -0.063
H  0.791  -0.000  0.498
H  -0.791  0.000  0.498
    3
step 1088
O  0.000  -0.000  -0.061
H  0.779  0.000  0.486
H  -0.781  -0.000  0.487
    3
step 1089
O  0.000  -0.000  -0.060
H  0.768  0.000  0.474
H  -0.771  -0.000  0.476
    3
step 1090
O  0.000  0.000  -0.059
H  0.760  -0.000  0.465
H  -0.764  -0.000  0.468
    3
step 1091
O  0.000  -0.000  -0.058
H  0.757  0.000  0.460
H  -0.761  -0.000  0.462
    3
step 1092
O  0.000  -0.000  -0.058
H  0.759  0.000  0.458
H  -0.762  0.000  0.460
    3
step 1093
O  0.000  0.000  -0.058
H  0.766  -0.000  0.460
H  -0.768  -0.000  0.461
    3
step 1094
O  0.000  -0.000  -0.059
H  0.777  0.000  0.466
H  -0.777  0.000  0.466
    3
step 1095
O  -0.000  0.000  -0.060
H  0.791  -0.000  0.474
H  -0.789  0.000  0.473
    3
step 1096
O  -0.000  0.000  -0.061
H  0.805  -0.000  0.484
H  -0.802  -0.000  0.482
    3
step 1097
O  -0.000  0.000  -0.062
H  0.818  -0.000  0.493
H  -0.814  -0.000  0.491
    3
step 1098
O  -0.000  0.000  -0.063
H  0.828  0.000  0.501
H  -0.824  -0.000  0.499
    3
step 1099
O  -0.000  0.000  -0.064
H  0.835  -0.000  0.508
H  -0.831  -0.000  0.505
    3
step 1100
O  -0.000  0.000  -0.064
H  0.837  -0.000  0.512
H  -0.833  -0.000  0.510
    3
step 1101
O  -0.000  -0.000  -0.065
H  0.834  0.000  0.515
H  -0.831  0.000  0.513
    3
step 1102
O  -0.000  -0.000  -0.065
H  0.827  -0.000  0.514
H  -0.825  0.000  0.513
    3
step 1103
O  -0.000  0.000  -0.064
H  0.816  -0.000  0.511
H  -0.815  -0.000  0.511
    3
step 1104
O  0.000  -0.000  -0.064
H  0.801  0.000  0.507
H  -0.802  0.000  0.508
    3
step 1105
O  0.000  -0.000  -0.063
H  0.784  0.000  0.502
H  -0.787  0.000  0.503
    3
step 1106
O  0.000  -0.000  -0.063
H  0.767  0.000  0.496
H  -0.771  0.000  0.498
    3
step 1107
O  0.000  0.000  -0.062
H  0.751  -0.000  0.491
H  -0.756  -0.000  0.494
    3
step 1108
O  0.000  0.000  -0.062
H  0.739  -0.000  0.489
H  -0.744  0.000  0.492
    3
step 1109
O  0.000  0.000  -0.062
H  0.732  -0.000  0.490
H  -0.736  -0.000  0.492
    3
step 1110
O  0.000  -0.000  -0.062
H  0.731  0.000  0.495
H  -0.733  0.000  0.496
    3
step 1111
O  0.000  -0.000  -0.063
H  0.735  0.000  0.503
H  -0.735  0.000  0.503
    3
step 1112
O  -0.000  0.000  -0.065
H  0.744  -0.000  0.514
H  -0.742  -0.000  0.513
    3
step 1113
O  -0.000  0.000  -0.066
H  0.755  -0.000  0.526
H  -0.752  -0.000  0.524
    3
step 1114
O  -0.000  0.000  -0.068
H  0.767  -0.000  0.538
H  -0.763  0.000  0.535
    3
step 1115
O  -0.000  0.000  -0.069
H  0.779  -0.000  0.548
H  -0.775  -0.000  0.546
    3
step 1116
O  -0.000  0.000  -0.070
H  0.789  -0.000  0.557
H  -0.785  -0.000  0.554
    3
step 1117
O  -0.000  -0.000  -0.071
H  0.796  0.000  0.562
H  -0.792  -0.000  0.560
    3
step 1118
O  -0.000  0.000  -0.071
H  0.799  -0.000  0.564
H  -0.796  -0.000  0.562
    3
step 1119
O  -0.000  -0.000  -0.071
H  0.798  0.000  0.562
H  -0.797  -0.000  0.561
    3
step 1120
O  0.000  0.000  -0.070
H  0.794  -0.000  0.556
H  -0.794  -0.000  0.557
    3
step 1121
O  0.000  -0.000  -0.069
H  0.786  0.000  0.548
H  -0.788  0.000  0.549
    3
step 1122
O  0.000  0.000  -0.068
H  0.776  0.000  0.536
H  -0.779  -0.000  0.538
    3
step 1123
O  0.000  -0.000  -0.066
H  0.765  -0.000  0.523
H  -0.769  0.000  0.526
    3
step 1124
O  0.000  0.000  -0.064
H  0.754  -0.000  0.510
H  -0.758  -0.000  0.513
    3
step 1125
O  0.000  0.000  -0.063
H  0.745  0.000  0.498
H  -0.749  -0.000  0.500
    3
step 1126
O  0.000  0.000  -0.062
H  0.740  0.000  0.487
H  -0.743  -0.000  0.489
    3
step 1127
O  0.000  -0.000  -0.061
H  0.740  0.000  0.480
H  -0.741  0.000  0.481
    3
step 1128
O  -0.000  0.000  -0.060
H  0.745  0.000  0.477
H  -0.745  -0.000  0.477
    3
step 1129
O  -0.000  0.000  -0.060
H  0.756  -0.000  0.478
H  -0.754  0.000  0.477
    3
step 1130
O  -0.000  0.000  -0.061
H  0.771  -0.000  0.481
H  -0.767  -0.000  0.479
    3
step 1131
O  -0.000  0.000  -0.061
H  0.788  0.000  0.487
H  -0.783  -0.000  0.484
    3
step 1132
O  -0.000  0.000  -0.062
H  0.805  0.000  0.493
H  -0.801  -0.000  0.490
    3
step 1133
O  -0.000  0.000  -0.063
H  0.820  -0.000  0.498
H  -0.817  -0.000  0.496
    3
step 1134
O  -0.000  0.000  -0.063
H  0.833  -0.000  0.502
H  -0.830  -0.000  0.500
    3
step 1135
O  -0.000  0.000  -0.063
H  0.841  -0.000  0.504
H  -0.840  -0.000  0.503
    3
step 1136
O  -0.000  -0.000  -0.064
H  0.845  0.000  0.504
H  -0.845  0.000  0.504
    3
step 1137
O  0.000  0.000  -0.063
H  0.843  -0.000  0.502
H  -0.845  -0.000  0.503
    3
step 1138
O  0.000  -0.000  -0.063
H  0.837  -0.000  0.498
H  -0.840  0.000  0.499
    3
step 1139
O  0.000  -0.000  -0.062
H  0.827  0.000  0.491
H  -0.831  -0.000  0.494
    3
step 1140
O  0.000  -0.000  -0.061
H  0.813  -0.000  0.484
H  -0.818  0.000  0.487
    3
step 1141
O  0.000  0.000  -0.060
H  0.798  0.000  0.476
H  -0.803  -0.000  0.479
    3
step 1142
O  0.000  -0.000  -0.059
H  0.782  0.000  0.469
H  -0.786  -0.000  0.471
    3
step 1143
O  0.000  -0.000  -0.059
H  0.768  0.000  0.463
H  -0.771  0.000  0.465
    3
step 1144
O  0.000  -0.000  -0.058
H  0.757  0.000  0.461
H  -0.759  -0.000  0.462
    3
step 1145
O  -0.000  0.000  -0.058
H  0.752  -0.000  0.463
H  -0.752  -0.000  0.463
    3
step 1146
O  -0.000  0.000  -0.059
H  0.752  0.000  0.469
H  -0.750  -0.000  0.467
    3
step 1147
O  -0.000  0.000  -0.060
H  0.758  -0.000  0.478
H  -0.754  -0.000  0.476
    3
step 1148
O  -0.000  -0.000  -0.062
H  0.766  0.000  0.491
H  -0.762  0.000  0.488
    3
step 1149
O  -0.000  0.000  -0.063
H  0.777  0.000  0.504
H  -0.773  -0.000  0.502
    3
step 1150
O  -0.000  0.000  -0.065
H  0.788  -0.000  0.518
H  -0.785  -0.000  0.516
    3
step 1151
O  -0.000  -0.000  -0.067
H  0.798  0.000  0.531
H  -0.796  0.000  0.530
    3
step 1152
O  0.000  0.000  -0.068
H  0.804  -0.000  0.542
H  -0.804  0.000  0.542
    3
step 1153
O  0.000  -0.000  -0.069
H  0.808  0.000  0.549
H  -0.809  0.000  0.550
    3
step 1154
O  0.000  -0.000  -0.070
H  0.807  0.000  0.554
H  -0.810  0.000  0.556
    3
step 1155
O  0.000  -0.000  -0.070
H  0.802  0.000  0.555
H  -0.807  -0.000  0.558
    3
step 1156
O  0.000  -0.000  -0.070
H  0.794  -0.000  0.553
H  -0.800  0.000  0.556
    3
step 1157
O  0.000  0.000  -0.069
H  0.782  -0.000  0.548
H  -0.788  -0.000  0.551
    3
step 1158
O  0.000  0.000  -0.068
H  0.769  -0.000  0.540
H  -0.775  -0.000  0.543
    3
step 1159
O  0.000  0.000  -0.067
H  0.754  -0.000  0.531
H  -0.759  0.000  0.534
    3
step 1160
O  0.000  -0.000  -0.066
H  0.741  0.000  0.521
H  -0.744  0.000  0.523
    3
step 1161
O  0.000  0.000  -0.065
H  0.730  -0.000  0.512
H  -0.731  -0.000  0.513
    3
step 1162
O  -0.000  -0.000  -0.064
H  0.723  -0.000  0.506
H  -0.722  0.000  0.506
    3
step 1163
O  -0.000  0.000  -0.063
H  0.722  0.000  0.503
H  -0.719  -0.000  0.501
    3
step 1164
O  -0.000  -0.000  -0.063
H  0.727  0.000  0.503
H  -0.723  0.000  0.501
    3
step 1165
O  -0.000  0.000  -0.064
H  0.737  -0.000  0.506
H  -0.732  -0.000  0.504
    3
step 1166
O  -0.000  0.000  -0.064
H  0.751  -0.000  0.512
H  -0.746  -0.000  0.509
    3
step 1167
O  -0.000  -0.000  -0.065
H  0.767  -0.000  0.518
H  -0.763  0.000  0.516
    3
step 1168
O  -0.000  -0.000  -0.066
H  0.783  0.000  0.525
H  -0.781  -0.000  0.523
    3
step 1169
O  -0.000  -0.000  -0.067
H  0.798  -0.000  0.530
H  -0.798  0.000  0.530
    3
step 1170
O  0.000  0.000  -0.067
H  0.811  -0.000  0.533
H  -0.812  0.000  0.534
    3
step 1171
O  0.000  -0.000  -0.067
H  0.819  0.000  0.533
H  -0.823  0.000  0.535
    3
step 1172
O  0.000  -0.000  -0.067
H  0.824  0.000  0.530
H  -0.829  -0.000  0.533
    3
step 1173
O  0.000  0.000  -0.066
H  0.824  -0.000  0.525
H  -0.830  0.000  0.528
    3
step 1174
O  0.000  -0.000  -0.065
H  0.820  0.000  0.517
H  -0.826  0.000  0.521
    3
step 1175
O  0.000  0.000  -0.064
H  0.812  -0.000  0.507
H  -0.818  0.000  0.511
    3
step 1176
O  0.000  0.000  -0.063
H  0.802  0.000  0.496
H  -0.807  -0.000  0.499
    3
step 1177
O  0.000  0.000  -0.061
H  0.790  -0.000  0.484
H  -0.793  -0.000  0.486
    3
step 1178
O  0.000  0.000  -0.060
H  0.778  -0.000  0.473
H  -0.780  -0.000  0.474
    3
step 1179
O  -0.000  -0.000  -0.058
H  0.769  -0.000  0.464
H  -0.768  0.000  0.463
    3
step 1180
O  -0.000  0.000  -0.058
H  0.762  0.000  0.458
H  -0.760  -0.000  0.456
    3
step 1181
O  -0.000  -0.000  -0.057
H  0.761  -0.000  0.456
H  -0.757  0.000  0.453
    3
step 1182
O  -0.000  -0.000  -0.057
H  0.765  0.000  0.457
H  -0.760  -0.000  0.455
    3
step 1183
O  -0.000  0.000  -0.058
H  0.773  0.000  0.463
H  -0.768  -0.000  0.460
    3
step 1184
O  -0.000  0.000  -0.059
H  0.784  -0.000  0.471
H  -0.781  -0.000  0.469
    3
step 1185
O  -0.000  0.000  -0.061
H  0.796  -0.000  0.480
H  -0.795  -0.000  0.480
    3
step 1186
O  0.000  -0.000  -0.062
H  0.808  0.000  0.491
H  -0.809  0.000  0.491
    3
step 1187
O  0.000  -0.000  -0.063
H  0.818  0.000  0.500
H  -0.821  0.000  0.502
    3
step 1188
O  0.000  0.000  -0.064
H  0.825  -0.000  0.508
H  -0.830  -0.000  0.511
    3
step 1189
O  0.000  0.000  -0.065
H  0.828  -0.000  0.515
H  -0.834  0.000  0.518
    3
step 1190
O  0.000  0.000  -0.066
H  0.827  0.000  0.519
H  -0.834  -0.000  0.522
    3
step 1191
O  0.000  0.000  -0.066
H  0.822  -0.000  0.520
H  -0.829  0.000  0.524
    3
step 1192
O  0.000  -0.000  -0.066
H  0.813  -0.000  0.519
H  -0.819  0.000  0.523
    3
step 1193
O  0.000  0.000  -0.065
H  0.801  0.000  0.516
H  -0.806  -0.000  0.519
    3
step 1194
O  0.000  0.000  -0.065
H  0.786  -0.000  0.512
H  -0.789  0.000  0.514
    3
step 1195
O  0.000  0.000  -0.064
H  0.771  0.000  0.507
H  -0.772  -0.000  0.508
    3
step 1196
O  -0.000  0.000  -0.063
H  0.756  0.000  0.502
H  -0.755  -0.000  0.502
    3
step 1197
O  -0.000  0.000  -0.063
H  0.744  0.000  0.499
H  -0.741  -0.000  0.498
    3
step 1198
O  -0.000  -0.000  -0.063
H  0.735  0.000  0.498
H  -0.732  0.000  0.496
    3
step 1199
O  -0.000  0.000  -0.063
H  0.732  -0.000  0.500
H  -0.728  -0.000  0.497
    3
step 1200
O  -0.000  -0.000  -0.063
H  0.733  0.000  0.505
H  -0.729  0.000  0.502
    3
step 1201
O  -0.000  0.000  -0.064
H  0.739  0.000  0.512
H  -0.736  -0.000  0.510
    3
step 1202
O  -0.000  0.000  -0.066
H  0.748  0.000  0.521
H  -0.747  -0.000  0.520
    3
step 1203
O  0.000  -0.000  -0.067
H  0.758  0.000  0.530
H  -0.759  -0.000  0.531
    3
step 1204
O  0.000  0.000  -0.068
H  0.770  0.000  0.539
H  -0.772  -0.000  0.541
    3
step 1205
O  0.000  -0.000  -0.069
H  0.780  -0.000  0.546
H  -0.784  0.000  0.549
    3
step 1206
O  0.000  0.000  -0.070
H  0.788  -0.000  0.551
H  -0.793  0.000  0.554
    3
step 1207
O  0.000  -0.000  -0.070
H  0.793  0.000  0.553
H  -0.798  -0.000  0.556
    3
step 1208
O  0.000  0.000  -0.070
H  0.795  -0.000  0.552
H  -0.801  0.000  0.555
    3
step 1209
O  0.000  -0.000  -0.069
H  0.794  0.000  0.548
H  -0.799  0.000  0.551
    3
step 1210
O  0.000  -0.000  -0.068
H  0.790  0.000  0.541
H  -0.794  -0.000  0.543
    3
step 1211
O  0.000  -0.000  -0.067
H  0.783  0.000  0.532
H  -0.786  -0.000  0.534
    3
step 1212
O  0.000  -0.000  -0.066
H  0.775  0.000  0.522
H  -0.776  0.000  0.522
    3
step 1213
O  -0.000  -0.000  -0.064
H  0.767  0.000  0.511
H  -0.765  0.000  0.510
    3
step 1214
O  -0.000  -0.000  -0.063
H  0.759  -0.000  0.500
H  -0.756  0.000  0.498
    3
step 1215
O  -0.000  -0.000  -0.062
H  0.754  0.000  0.491
H  -0.750  -0.000  0.488
    3
step 1216
O  -0.000  0.000  -0.061
H  0.752  -0.000  0.484
H  -0.747  0.000  0.481
    3
step 1217
O  -0.000  0.000  -0.060
H  0.753  -0.000  0.480
H  -0.749  -0.000  0.477
    3
step 1218
O  -0.000  -0.000  -0.060
H  0.759  0.000  0.479
H  -0.756  0.000  0.477
    3
step 1219
O  -0.000  0.000  -0.060
H  0.768  -0.000  0.480
H  -0.767  0.000  0.480
    3
step 1220
O  0.000  -0.000  -0.061
H  0.780  0.000  0.484
H  -0.781  -0.000  0.484
    3
step 1221
O  0.000  -0.000  -0.062
H  0.792  0.000  0.489
H  -0.795  0.000  0.490
    3
step 1222
O  0.000  -0.000  -0.062
H  0.804  -0.000  0.493
H  -0.808  0.000  0.496
    3
step 1223
O  0.000  -0.000  -0.063
H  0.814  0.000  0.498
H  -0.819  0.000  0.501
    3
step 1224
O  0.000  0.000  -0.063
H  0.822  -0.000  0.501
H  -0.827  -0.000  0.504
    3
step 1225
O  0.000  -0.000  -0.064
H  0.826  0.000  0.503
H  -0.830  -0.000  0.506
    3
step 1226
O  0.000  -0.000  -0.064
H  0.826  0.000  0.503
H  -0.830  -0.000  0.506
    3
step 1227
O  0.000  -0.000  -0.063
H  0.823  0.000  0.502
H  -0.825  -0.000  0.503
    3
step 1228
O  0.000  0.000  -0.063
H  0.816  -0.000  0.499
H  -0.817  -0.000  0.499
    3
step 1229
O  -0.000  0.000  -0.062
H  0.807  -0.000  0.494
H  -0.806  -0.000  0.494
    3
step 1230
O  -0.000  0.000  -0.062
H  0.795  0.000  0.490
H  -0.794  -0.000  0.489
    3
step 1231
O  -0.000  0.000  -0.061
H  0.784  -0.000  0.485
H  -0.781  0.000  0.483
    3
step 1232
O  -0.000  -0.000  -0.061
H  0.773  0.000  0.481
H  -0.769  -0.000  0.479
    3
step 1233
O  -0.000  0.000  -0.060
H  0.763  0.000  0.479
H  -0.760  -0.000  0.477
    3
step 1234
O  -0.000  0.000  -0.060
H  0.757  -0.000  0.480
H  -0.754  0.000  0.478
    3
step 1235
O  -0.000  0.000  -0.061
H  0.755  -0.000  0.483
H  -0.753  0.000  0.482
    3
step 1236
O  -0.000  0.000  -0.062
H  0.756  -0.000  0.488
H  -0.756  -0.000  0.488
    3
step 1237
O  0.000  0.000  -0.063
H  0.760  -0.000  0.496
H  -0.762  -0.000  0.497
    3
step 1238
O  0.000  0.000  -0.064
H  0.767  0.000  0.505
H  -0.770  -0.000  0.507
    3
step 1239
O  0.000  0.000  -0.065
H  0.774  -0.000  0.515
H  -0.778  -0.000  0.517
    3
step 1240
O  0.000  0.000  -0.066
H  0.782  -0.000  0.524
H  -0.786  -0.000  0.527
    3
step 1241
O  0.000  -0.000  -0.067
H  0.788  0.000  0.532
H  -0.792  0.000  0.535
    3
step 1242
O  0.000  0.000  -0.068
H  0.792  0.000  0.538
H  -0.796  -0.000  0.541
    3
step 1243
O  0.000  0.000  -0.068
H  0.793  -0.000  0.542
H  -0.796  -0.000  0.544
    3
step 1244
O  0.000  -0.000  -0.069
H  0.792  0.000  0.543
H  -0.794  0.000  0.544
    3
step 1245
O  0.000  -0.000  -0.068
H  0.788  0.000  0.542
H  -0.788  -0.000  0.542
    3
step 1246
O  -0.000  0.000  -0.068
H  0.781  0.000  0.538
H  -0.780  -0.000  0.538
    3
step 1247
O  -0.000  0.000  -0.067
H  0.773  -0.000  0.533
H  -0.771  -0.000  0.532
    3
step 1248
O  -0.000  -0.000  -0.066
H  0.764  0.000  0.526
H  -0.761  -0.000  0.524
    3
step 1249
O  -0.000  -0.000  -0.065
H  0.755  0.000  0.519
H  -0.752  0.000  0.517
    3
step 1250
O  -0.000  -0.000  -0.064
H  0.748  0.000  0.512
H  -0.744  0.000  0.510
    3
step 1251
O  -0.000  -0.000  -0.064
H  0.743  0.000  0.507
H  -0.740  -0.000  0.505
    3
step 1252
O  -0.000  -0.000  -0.063
H  0.741  0.000  0.503
H  -0.739  -0.000  0.502
    3
step 1253
O  -0.000  -0.000  -0.063
H  0.743  -0.000  0.501
H  -0.743  0.000  0.501
    3
step 1254
O  0.000  0.000  -0.063
H  0.748  -0.000  0.502
H  -0.750  0.000  0.503
    3
step 1255
O  0.000  -0.000  -0.064
H  0.757  -0.000  0.505
H  -0.760  0.000  0.506
    3
step 1256
O  0.000  -0.000  -0.064
H  0.768  0.000  0.508
H  -0.771  0.000  0.510
    3
step 1257
O  0.000  0.000  -0.065
H  0.779  0.000  0.512
H  -0.783  -0.000  0.514
    3
step 1258
O  0.000  -0.000  -0.065
H  0.790  0.000  0.515
H  -0.794  0.000  0.518
    3
step 1259
O  0.000  0.000  -0.065
H  0.800  -0.000  0.518
H  -0.803  -0.000  0.520
    3
step 1260
O  0.000  0.000  -0.065
H  0.807  -0.000  0.519
H  -0.809  0.000  0.520
    3
step 1261
O  0.000  0.000  -0.065
H  0.811  0.000  0.518
H  -0.812  -0.000  0.518
    3
step 1262
O  -0.000  0.000  -0.065
H  0.812  -0.000  0.515
H  -0.811  0.000  0.515
    3
step 1263
O  -0.000  -0.000  -0.064
H  0.810  0.000  0.511
H  -0.808  0.000  0.510
    3
step 1264
O  -0.000  0.000  -0.063
H  0.805  -0.000  0.505
H  -0.802  -0.000  0.503
    3
step 1265
O  -0.000  0.000  -0.063
H  0.798  0.000  0.497
H  -0.794  -0.000  0.495
    3
step 1266
O  -0.000  -0.000  -0.062
H  0.789  0.000  0.490
H  -0.786  0.000  0.488
    3
step 1267
O  -0.000  -0.000  -0.061
H  0.781  0.000  0.483
H  -0.777  -0.000  0.481
    3
step 1268
O  -0.000  -0.000  -0.060
H  0.773  0.000  0.477
H  -0.771  0.000  0.475
    3
step 1269
O  -0.000  -0.000  -0.060
H  0.767  0.000  0.473
H  -0.766  -0.000  0.472
    3
step 1270
O  0.000  0.000  -0.059
H  0.765  -0.000  0.471
H  -0.765  0.000  0.471
    3
step 1271
O  0.000  0.000  -0.060
H  0.766  -0.000  0.473
H  -0.767  0.000  0.474
    3
step 1272
O  0.000  -0.000  -0.060
H  0.770  0.000  0.476
H  -0.773  -0.000  0.478
    3
step 1273
O  0.000  0.000  -0.061
H  0.776  -0.000  0.482
H  -0.780  -0.000  0.485
    3
step 1274
O  0.000  0.000  -0.062
H  0.784  -0.000  0.490
H  -0.788  -0.000  0.492
    3
step 1275
O  0.000  0.000  -0.063
H  0.793  -0.000  0.498
H  -0.796  0.000  0.500
    3
step 1276
O  0.000  -0.000  -0.064
H  0.800  0.000  0.506
H  -0.803  0.000  0.507
    3
step 1277
O  0.000  -0.000  -0.065
H  0.806  0.000  0.513
H  -0.807  0.000  0.514
    3
step 1278
O  0.000  -0.000  -0.065
H  0.809  0.000  0.518
H  -0.809  0.000  0.518
    3
step 1279
O  -0.000  -0.000  -0.066
H  0.809  0.000  0.522
H  -0.808  0.000  0.521
    3
step 1280
O  -0.000  -0.000  -0.066
H  0.806  0.000  0.523
H  -0.804  0.000  0.522
    3
step 1281
O  -0.000  0.000  -0.066
H  0.799  0.000  0.523
H  -0.797  -0.000  0.521
    3
step 1282
O  -0.000  -0.000  -0.065
H  0.791  0.000  0.521
H  -0.787  0.000  0.518
    3
step 1283
O  -0.000  0.000  -0.065
H  0.780  -0.000  0.517
H  -0.777  -0.000  0.515
    3
step 1284
O  -0.000  -0.000  -0.064
H  0.769  0.000  0.513
H  -0.766  0.000  0.511
    3
step 1285
O  -0.000  -0.000  -0.064
H  0.758  0.000  0.508
H  -0.756  -0.000  0.507
    3
step 1286
O  -0.000  -0.000  -0.064
H  0.748  0.000  0.505
H  -0.747  -0.000  0.505
    3
step 1287
O  0.000  0.000  -0.063
H  0.742  0.000  0.503
H  -0.742  -0.000  0.504
    3
step 1288
O  0.000  -0.000  -0.064
H  0.739  0.000  0.503
H  -0.741  -0.000  0.505
    3
step 1289
O  0.000  -0.000  -0.064
H  0.740  0.000  0.506
H  -0.743  0.000  0.508
    3
step 1290
O  0.000  -0.000  -0.064
H  0.744  0.000  0.511
H  -0.748  0.000  0.513
    3
step 1291
O  0.000  -0.000  -0.065
H  0.752  0.000  0.517
H  -0.755  0.000  0.519
    3
step 1292
O  0.000  0.000  -0.066
H  0.762  0.000  0.524
H  -0.764  -0.000  0.525
    3
step 1293
O  0.000  0.000  -0.067
H  0.772  0.000  0.530
H  -0.774  0.000  0.531
    3
step 1294
O  0.000  -0.000  -0.068
H  0.781  0.000  0.536
H  -0.782  -0.000  0.536
    3
step 1295
O  -0.000  0.000  -0.068
H  0.789  -0.000  0.540
H  -0.788  -0.000  0.539
    3
step 1296
O  -0.000  -0.000  -0.068
H  0.795  0.000  0.541
H  -0.793  0.000  0.540
    3
step 1297
O  -0.000  -0.000  -0.068
H  0.797  0.000  0.540
H  -0.794  0.000  0.539
    3
step 1298
O  -0.000  0.000  -0.068
H  0.797  0.000  0.537
H  -0.793  -0.000  0.535
    3
step 1299
O  -0.000  0.000  -0.067
H  0.794  -0.000  0.531
H  -0.790  -0.000  0.529
    3
step 1300
O  -0.000  -0.000  -0.066
H  0.788  0.000  0.523
H  -0.784  0.000  0.521
    3
step 1301
O  -0.000  -0.000  -0.065
H  0.781  0.000  0.514
H  -0.778  -0.000  0.512
    3
step 1302
O  -0.000  0.000  -0.063
H  0.773  -0.000  0.504
H  -0.770  0.000  0.503
    3
step 1303
O  -0.000  0.000  -0.062
H  0.765  -0.000  0.494
H  -0.764  0.000  0.494
    3
step 1304
O  0.000  0.000  -0.061
H  0.759  0.000  0.486
H  -0.759  -0.000  0.486
    3
step 1305
O  0.000  0.000  -0.060
H  0.756  -0.000  0.479
H  -0.758  -0.000  0.481
    3
step 1306
O  0.000  -0.000  -0.060
H  0.756  0.000  0.476
H  -0.760  0.000  0.477
    3
step 1307
O  0.000  0.000  -0.060
H  0.761  -0.000  0.475
H  -0.765  -0.000  0.477
    3
step 1308
O  0.000  -0.000  -0.060
H  0.770  0.000  0.477
H  -0.773  -0.000  0.479
    3
step 1309
O  0.000  -0.000  -0.061
H  0.781  0.000  0.481
H  -0.784  0.000  0.483
    3
step 1310
O  0.000  -0.000  -0.061
H  0.794  0.000  0.487
H  -0.795  0.000  0.488
    3
step 1311
O  0.000  0.000  -0.062
H  0.806  -0.000  0.493
H  -0.806  -0.000  0.493
    3
step 1312
O  -0.000  -0.000  -0.063
H  0.817  0.000  0.498
H  -0.815  -0.000  0.498
    3
step 1313
O  -0.000  0.000  -0.063
H  0.825  -0.000  0.503
H  -0.822  -0.000  0.501
    3
step 1314
O  -0.000  -0.000  -0.064
H  0.830  0.000  0.506
H  -0.826  -0.000  0.504
    3
step 1315
O  -0.000  -0.000  -0.064
H  0.830  0.000  0.507
H  -0.826  0.000  0.504
    3
step 1316
O  -0.000  -0.000  -0.064
H  0.827  -0.000  0.506
H  -0.822  0.000  0.503
    3
step 1317
O  -0.000  0.000  -0.063
H  0.819  -0.000  0.503
H  -0.815  -0.000  0.501
    3
step 1318
O  -0.000  0.000  -0.063
H  0.808  -0.000  0.499
H  -0.805  -0.000  0.497
    3
step 1319
O  -0.000  0.000  -0.062
H  0.795  0.000  0.493
H  -0.793  -0.000  0.492
    3
step 1320
O  0.000  -0.000  -0.061
H  0.780  -0.000  0.488
H  -0.780  0.000  0.488
    3
step 1321
O  0.000  0.000  -0.061
H  0.766  0.000  0.483
H  -0.768  -0.000  0.484
    3
step 1322
O  0.000  0.000  -0.061
H  0.754  -0.000  0.480
H  -0.757  -0.000  0.482
    3
step 1323
O  0.000  -0.000  -0.061
H  0.745  0.000  0.479
H  -0.750  0.000  0.482
    3
step 1324
O  0.000  -0.000  -0.061
H  0.742  0.000  0.483
H  -0.747  -0.000  0.486
    3
step 1325
O  0.000  -0.000  -0.062
H  0.743  0.000  0.490
H  -0.748  0.000  0.492
    3
step 1326
O  0.000  -0.000  -0.063
H  0.749  0.000  0.500
H  -0.753  0.000  0.502
    3
step 1327
O  0.000  -0.000  -0.065
H  0.759  0.000  0.512
H  -0.760  0.000  0.513
    3
step 1328
O  -0.000  0.000  -0.066
H  0.770  -0.000  0.525
H  -0.769  -0.000  0.525
    3
step 1329
O  -0.000  0.000  -0.068
H  0.781  -0.000  0.538
H  -0.779  -0.000  0.536
    3
step 1330
O  -0.000  0.000  -0.069
H  0.790  0.000  0.549
H  -0.787  -0.000  0.547
    3
step 1331
O  -0.000  0.000  -0.070
H  0.797  -0.000  0.557
H  -0.792  -0.000  0.555
    3
step 1332
O  -0.000  0.000  -0.071
H  0.800  -0.000  0.563
H  -0.795  -0.000  0.560
    3
step 1333
O  -0.000  -0.000  -0.071
H  0.800  0.000  0.565
H  -0.795  0.000  0.562
    3
step 1334
O  -0.000  -0.000  -0.071
H  0.795  0.000  0.563
H  -0.791  0.000  0.561
    3
step 1335
O  -0.000  0.000  -0.070
H  0.787  -0.000  0.558
H  -0.784  0.000  0.556
    3
step 1336
O  -0.000  0.000  -0.069
H  0.776  -0.000  0.549
H  -0.774  -0.000  0.548
    3
step 1337
O  0.000  0.000  -0.068
H  0.763  0.000  0.538
H  -0.763  -0.000  0.538
    3
step 1338
O  0.000  0.000  -0.066
H  0.749  0.000  0.526
H  -0.751  -0.000  0.527
    3
step 1339
O  0.000  -0.000  -0.065
H  0.736  0.000  0.514
H  -0.740  -0.000  0.516
    3
step 1340
O  0.000  -0.000  -0.064
H  0.727  0.000  0.503
H  -0.732  0.000  0.506
    3
step 1341
O  0.000  -0.000  -0.063
H  0.723  -0.000  0.495
H  -0.728  0.000  0.498
    3
step 1342
O  0.000  -0.000  -0.062
H  0.726  0.000  0.491
H  -0.730  0.000  0.494
    3
step 1343
O  0.000  0.000  -0.062
H  0.735  -0.000  0.491
H  -0.738  0.000  0.493
    3
step 1344
O  0.000  0.000  -0.062
H  0.749  -0.000  0.495
H  -0.750  -0.000  0.495
    3
step 1345
O  -0.000  0.000  -0.063
H  0.768  -0.000  0.501
H  -0.766  -0.000  0.500
    3
step 1346
O  -0.000  0.000  -0.064
H  0.787  -0.000  0.508
H  -0.784  -0.000  0.506
    3
step 1347
O  -0.000  0.000  -0.065
H  0.806  -0.000  0.514
H  -0.801  -0.000  0.511
    3
step 1348
O  -0.000  0.000  -0.065
H  0.823  -0.000  0.519
H  -0.817  -0.000  0.516
    3
step 1349
O  -0.000  -0.000  -0.066
H  0.835  0.000  0.522
H  -0.829  0.000  0.518
    3
step 1350
O  -0.000  0.000  -0.066
H  0.843  -0.000  0.522
H  -0.837  -0.000  0.518
    3
step 1351
O  -0.000  -0.000  -0.065
H  0.845  0.000  0.519
H  -0.840  0.000  0.516
    3
step 1352
O  -0.000  -0.000  -0.064
H  0.842  0.000  0.513
H  -0.839  0.000  0.511
    3
step 1353
O  -0.000  0.000  -0.063
H  0.834  -0.000  0.504
H  -0.832  -0.000  0.503
    3
step 1354
O  0.000  -0.000  -0.062
H  0.822  0.000  0.494
H  -0.822  0.000  0.494
    3
step 1355
O  0.000  -0.000  -0.061
H  0.806  0.000  0.482
H  -0.809  0.000  0.484
    3
step 1356
O  0.000  0.000  -0.059
H  0.789  -0.000  0.470
H  -0.793  -0.000  0.473
    3
step 1357
O  0.000  -0.000  -0.058
H  0.773  0.000  0.460
H  -0.779  -0.000  0.464
    3
step 1358
O  0.000  -0.000  -0.057
H  0.761  -0.000  0.453
H  -0.766  0.000  0.456
    3
step 1359
O  0.000  0.000  -0.057
H  0.753  -0.000  0.450
H  -0.759  -0.000  0.453
    3
step 1360
O  0.000  -0.000  -0.057
H  0.752  0.000  0.452
H  -0.756  -0.000  0.454
    3
step 1361
O  0.000  -0.000  -0.058
H  0.758  0.000  0.459
H  -0.760  0.000  0.460
    3
step 1362
O  -0.000  0.000  -0.059
H  0.769  -0.000  0.470
H  -0.768  -0.000  0.469
    3
step 1363
O  -0.000  0.000  -0.061
H  0.782  0.000  0.483
H  -0.780  0.000  0.482
    3
step 1364
O  -0.000  0.000  -0.063
H  0.797  -0.000  0.498
H  -0.793  -0.000  0.496
    3
step 1365
O  -0.000  0.000  -0.064
H  0.810  -0.000  0.512
H  -0.806  0.000  0.510
    3
step 1366
O  -0.000  0.000  -0.066
H  0.820  -0.000  0.525
H  -0.816  -0.000  0.522
    3
step 1367
O  -0.000  -0.000  -0.067
H  0.826  0.000  0.535
H  -0.823  0.000  0.533
    3
step 1368
O  -0.000  0.000  -0.068
H  0.827  -0.000  0.542
H  -0.825  0.000  0.541
    3
step 1369
O  -0.000  0.000  -0.069
H  0.824  -0.000  0.546
H  -0.823  -0.000  0.545
    3
step 1370
O  0.000  -0.000  -0.069
H  0.815  -0.000  0.546
H  -0.816  0.000  0.547
    3
step 1371
O  0.000  -0.000  -0.068
H  0.802  0.000  0.543
H  -0.805  0.000  0.545
    3
step 1372
O  0.000  0.000  -0.068
H  0.785  -0.000  0.537
H  -0.791  -0.000  0.540
    3
step 1373
O  0.000  0.000  -0.067
H  0.767  -0.000  0.529
H  -0.774  -0.000  0.533
    3
step 1374
O  0.000  -0.000  -0.066
H  0.748  0.000  0.520
H  -0.756  0.000  0.524
    3
step 1375
O  0.000  0.000  -0.065
H  0.732  -0.000  0.512
H  -0.739  -0.000  0.516
    3
step 1376
O  0.000  -0.000  -0.064
H  0.720  0.000  0.506
H  -0.725  0.000  0.509
    3
step 1377
O  0.000  -0.000  -0.064
H  0.713  0.000  0.504
H  -0.717  0.000  0.506
    3
step 1378
O  0.000  0.000  -0.064
H  0.714  -0.000  0.505
H  -0.715  -0.000  0.506
    3
step 1379
O  -0.000  -0.000  -0.064
H  0.721  -0.000  0.511
H  -0.719  0.000  0.510
    3
step 1380
O  -0.000  -0.000  -0.065
H  0.734  0.000  0.519
H  -0.729  0.000  0.517
    3
step 1381
O  -0.000  0.000  -0.066
H  0.749  0.000  0.529
H  -0.743  -0.000  0.526
    3
step 1382
O  -0.000  0.000  -0.068
H  0.766  -0.000  0.539
H  -0.760  -0.000  0.536
    3
step 1383
O  -0.000  -0.000  -0.069
H  0.782  0.000  0.548
H  -0.776  0.000  0.544
    3
step 1384
O  -0.000  -0.000  -0.070
H  0.796  0.000  0.554
H  -0.791  0.000  0.551
    3
step 1385
O  -0.000  0.000  -0.070
H  0.806  -0.000  0.557
H  -0.803  -0.000  0.555
    3
step 1386
O  -0.000  0.000  -0.070
H  0.812  -0.000  0.557
H  -0.811  -0.000  0.556
    3
step 1387
O  0.000  -0.000  -0.070
H  0.814  -0.000  0.552
H  -0.815  0.000  0.553
    3
step 1388
O  0.000  0.000  -0.069
H  0.811  -0.000  0.545
H  -0.814  -0.000  0.546
    3
step 1389
O  0.000  0.000  -0.067
H  0.804  -0.000  0.534
H  -0.809  -0.000  0.537
    3
step 1390
O  0.000  0.000  -0.066
H  0.794  -0.000  0.521
H  -0.800  0.000  0.524
    3
step 1391
O  0.000  0.000  -0.064
H  0.783  -0.000  0.507
H  -0.788  -0.000  0.510
    3
step 1392
O  0.000  -0.000  -0.062
H  0.771  -0.000  0.493
H  -0.776  0.000  0.496
    3
step 1393
O  0.000  -0.000  -0.061
H  0.760  0.000  0.480
H  -0.764  -0.000  0.482
    3
step 1394
O  0.000  -0.000  -0.059
H  0.753  0.000  0.469
H  -0.755  -0.000  0.471
    3
step 1395
O  -0.000  -0.000  -0.058
H  0.751  0.000  0.463
H  -0.751  0.000  0.463
    3
step 1396
O  -0.000  -0.000  -0.058
H  0.755  0.000  0.461
H  -0.752  -0.000  0.459
    3
step 1397
O  -0.000  0.000  -0.058
H  0.764  -0.000  0.463
H  -0.760  0.000  0.460
    3
step 1398
O  -0.000  0.000  -0.059
H  0.777  -0.000  0.468
H  -0.772  -0.000  0.465
    3
step 1399
O  -0.000  -0.000  -0.060
H  0.792  0.000  0.476
H  -0.787  0.000  0.473
    3
step 1400
O  -0.000  0.000  -0.061
H  0.807  -0.000  0.485
H  -0.803  0.000  0.482
    3
step 1401
O  -0.000  0.000  -0.062
H  0.821  0.000  0.493
H  -0.818  -0.000  0.491
    3
step 1402
O  -0.000  0.000  -0.063
H  0.831  -0.000  0.500
H  -0.830  -0.000  0.500
    3
step 1403
O  0.000  0.000  -0.064
H  0.837  0.000  0.506
H  -0.839  -0.000  0.507
    3
step 1404
O  0.000  0.000  -0.064
H  0.839  0.000  0.509
H  -0.842  -0.000  0.511
    3
step 1405
O  0.000  -0.000  -0.064
H  0.836  0.000  0.510
H  -0.841  0.000  0.513
    3
step 1406
O  0.000  -0.000  -0.064
H  0.828  0.000  0.509
H  -0.835  0.000  0.512
    3
step 1407
O  0.000  -0.000  -0.064
H  0.817  -0.000  0.505
H  -0.824  0.000  0.509
    3
step 1408
O  0.000  0.000  -0.063
H  0.802  -0.000  0.501
H  -0.809  -0.000  0.505
    3
step 1409
O  0.000  0.000  -0.063
H  0.786  -0.000  0.495
H  -0.792  -0.000  0.499
    3
step 1410
O  0.000  -0.000  -0.062
H  0.770  0.000  0.490
H  -0.775  0.000  0.493
    3
step 1411
O  0.000  -0.000  -0.061
H  0.756  0.000  0.486
H  -0.758  0.000  0.488
    3
step 1412
O  0.000  -0.000  -0.061
H  0.745  0.000  0.485
H  -0.745  0.000  0.485
    3
step 1413
O  -0.000  0.000  -0.061
H  0.739  -0.000  0.487
H  -0.736  0.000  0.486
    3
step 1414
O  -0.000  -0.000  -0.062
H  0.738  0.000  0.493
H  -0.734  0.000  0.490
    3
step 1415
O  -0.000  -0.000  -0.063
H  0.741  0.000  0.501
H  -0.737  0.000  0.498
    3
step 1416
O  -0.000  0.000  -0.064
H  0.749  -0.000  0.512
H  -0.744  0.000  0.509
    3
step 1417
O  -0.000  0.000  -0.066
H  0.758  0.000  0.524
H  -0.755  -0.000  0.521
    3
step 1418
O  -0.000  -0.000  -0.067
H  0.769  0.000  0.535
H  -0.767  -0.000  0.534
    3
step 1419
O  0.000  -0.000  -0.069
H  0.778  0.000  0.545
H  -0.778  0.000  0.545
    3
step 1420
O  0.000  0.000  -0.070
H  0.786  -0.000  0.553
H  -0.788  -0.000  0.554
    3
step 1421
O  0.000  -0.000  -0.070
H  0.790  0.000  0.558
H  -0.794  0.000  0.560
    3
step 1422
O  0.000  0.000  -0.071
H  0.792  -0.000  0.560
H  -0.797  -0.000  0.563
    3
step 1423
O  0.000  -0.000  -0.071
H  0.790  0.000  0.558
H  -0.796  0.000  0.562
    3
step 1424
O  0.000  0.000  -0.070
H  0.786  0.000  0.554
H  -0.792  -0.000  0.558
    3
step 1425
O  0.000  0.000  -0.069
H  0.778  0.000  0.546
H  -0.784  -0.000  0.550
    3
step 1426
O  0.000  0.000  -0.068
H  0.769  -0.000  0.537
H  -0.774  -0.000  0.540
    3
step 1427
O  0.000  -0.000  -0.066
H  0.760  0.000  0.526
H  -0.763  -0.000  0.528
    3
step 1428
O  0.000  -0.000  -0.065
H  0.751  0.000  0.515
H  -0.752  0.000  0.516
    3
step 1429
O  -0.000  0.000  -0.064
H  0.744  -0.000  0.506
H  -0.742  -0.000  0.505
    3
step 1430
O  -0.000  -0.000  -0.063
H  0.740  -0.000  0.498
H  -0.737  0.000  0.496
    3
step 1431
O  -0.000  -0.000  -0.062
H  0.741  0.000  0.492
H  -0.736  0.000  0.489
    3
step 1432
O  -0.000  0.000  -0.062
H  0.746  -0.000  0.490
H  -0.740  0.000  0.487
    3
step 1433
O  -0.000  0.000  -0.062
H  0.755  -0.000  0.491
H  -0.750  0.000  0.488
    3
step 1434
O  -0.000  0.000  -0.062
H  0.767  -0.000  0.494
H  -0.763  -0.000  0.491
    3
step 1435
O  -0.000  0.000  -0.063
H  0.781  -0.000  0.498
H  -0.779  0.000  0.496
    3
step 1436
O  -0.000  0.000  -0.063
H  0.795  -0.000  0.502
H  -0.795  -0.000  0.502
    3
step 1437
O  0.000  0.000  -0.064
H  0.807  -0.000  0.506
H  -0.809  -0.000  0.507
    3
step 1438
O  0.000  0.000  -0.064
H  0.817  -0.000  0.508
H  -0.821  -0.000  0.511
    3
step 1439
O  0.000  0.000  -0.064
H  0.824  -0.000  0.509
H  -0.829  -0.000  0.512
    3
step 1440
O  0.000  -0.000  -0.064
H  0.826  0.000  0.509
H  -0.832  -0.000  0.512
    3
step 1441
O  0.000  -0.000  -0.064
H  0.825  0.000  0.506
H  -0.831  0.000  0.509
    3
step 1442
O  0.000  -0.000  -0.063
H  0.821  0.000  0.501
H  -0.826  0.000  0.505
    3
step 1443
O  0.000  -0.000  -0.063
H  0.813  0.000  0.495
H  -0.817  -0.000  0.498
    3
step 1444
O  0.000  -0.000  -0.062
H  0.803  0.000  0.489
H  -0.805  0.000  0.490
    3
step 1445
O  0.000  -0.000  -0.061
H  0.791  0.000  0.482
H  -0.792  -0.000  0.482
    3
step 1446
O  -0.000  0.000  -0.060
H  0.780  0.000  0.476
H  -0.779  -0.000  0.475
    3
step 1447
O  -0.000  -0.000  -0.059
H  0.770  0.000  0.472
H  -0.767  0.000  0.470
    3
step 1448
O  -0.000  0.000  -0.059
H  0.763  -0.000  0.470
H  -0.759  -0.000  0.467
    3
step 1449
O  -0.000  -0.000  -0.059
H  0.760  -0.000  0.471
H  -0.755  0.000  0.468
    3
step 1450
O  -0.000  0.000  -0.060
H  0.761  -0.000  0.475
H  -0.757  -0.000  0.473
    3
step 1451
O  -0.000  -0.000  -0.061
H  0.765  0.000  0.482
H  -0.762  0.000  0.480
    3
step 1452
O  -0.000  -0.000  -0.062
H  0.771  0.000  0.491
H  -0.771  0.000  0.491
    3
step 1453
O  0.000  -0.000  -0.063
H  0.779  -0.000  0.501
H  -0.781  0.000  0.502
    3
step 1454
O  0.000  0.000  -0.065
H  0.787  -0.000  0.511
H  -0.791  -0.000  0.513
    3
step 1455
O  0.000  0.000  -0.066
H  0.794  -0.000  0.521
H  -0.799  -0.000  0.524
    3
step 1456
O  0.000  0.000  -0.067
H  0.799  -0.000  0.529
H  -0.805  0.000  0.532
    3
step 1457
O  0.000  -0.000  -0.068
H  0.801  0.000  0.535
H  -0.808  0.000  0.539
    3
step 1458
O  0.000  -0.000  -0.068
H  0.801  0.000  0.538
H  -0.807  0.000  0.542
    3
step 1459
O  0.000  0.000  -0.068
H  0.796  -0.000  0.539
H  -0.802  -0.000  0.542
    3
step 1460
O  0.000  -0.000  -0.068
H  0.790  0.000  0.538
H  -0.793  0.000  0.540
    3
step 1461
O  0.000  -0.000  -0.067
H  0.780  0.000  0.534
H  -0.782  0.000  0.535
    3
step 1462
O  0.000  -0.000  -0.067
H  0.770  0.000  0.529
H  -0.770  -0.000  0.529
    3
step 1463
O  -0.000  0.000  -0.066
H  0.758  -0.000  0.523
H  -0.757  -0.000  0.522
    3
step 1464
O  -0.000  -0.000  -0.065
H  0.748  0.000  0.517
H  -0.745  -0.000  0.515
    3
step 1465
O  -0.000  -0.000  -0.064
H  0.740  0.000  0.512
H  -0.735  0.000  0.509
    3
step 1466
O  -0.000  -0.000  -0.064
H  0.735  0.000  0.508
H  -0.730  0.000  0.505
    3
step 1467
O  -0.000  0.000  -0.064
H  0.734  -0.000  0.507
H  -0.730  -0.000  0.504
    3
step 1468
O  -0.000  0.000  -0.064
H  0.737  -0.000  0.508
H  -0.734  -0.000  0.506
    3
step 1469
O  -0.000  0.000  -0.064
H  0.744  -0.000  0.511
H  -0.743  -0.000  0.510
    3
step 1470
O  0.000  -0.000  -0.065
H  0.754  0.000  0.516
H  -0.755  0.000  0.516
    3
step 1471
O  0.000  -0.000  -0.066
H  0.765  0.000  0.521
H  -0.768  0.000  0.523
    3
step 1472
O  0.000  0.000  -0.066
H  0.777  -0.000  0.526
H  -0.781  -0.000  0.528
    3
step 1473
O  0.000  -0.000  -0.067
H  0.788  0.000  0.530
H  -0.793  0.000  0.533
    3
step 1474
O  0.000  -0.000  -0.067
H  0.797  -0.000  0.532
H  -0.802  0.000  0.535
    3
step 1475
O  0.000  -0.000  -0.067
H  0.803  0.000  0.532
H  -0.808  0.000  0.535
    3
step 1476
O  0.000  0.000  -0.067
H  0.807  -0.000  0.530
H  -0.810  -0.000  0.533
    3
step 1477
O  0.000  0.000  -0.066
H  0.807  -0.000  0.526
H  -0.809  -0.000  0.527
    3
step 1478
O  0.000  -0.000  -0.065
H  0.803  0.000  0.519
H  -0.804  0.000  0.520
    3
step 1479
O  -0.000  -0.000  -0.064
H  0.798  0.000  0.511
H  -0.797  0.000  0.511
    3
step 1480
O  -0.000  0.000  -0.063
H  0.790  -0.000  0.502
H  -0.787  -0.000  0.500
    3
step 1481
O  -0.000  -0.000  -0.062
H  0.782  0.000  0.492
H  -0.777  0.000  0.490
    3
step 1482
O  -0.000  0.000  -0.061
H  0.773  -0.000  0.484
H  -0.768  -0.000  0.481
    3
step 1483
O  -0.000  -0.000  -0.060
H  0.767  0.000  0.476
H  -0.762  -0.000  0.473
    3
step 1484
O  -0.000  0.000  -0.059
H  0.763  -0.000  0.471
H  -0.759  -0.000  0.469
    3
step 1485
O  -0.000  -0.000  -0.059
H  0.763  0.000  0.469
H  -0.760  0.000  0.468
    3
step 1486
O  -0.000  -0.000  -0.059
H  0.767  0.000  0.470
H  -0.766  -0.000  0.470
    3
step 1487
O  0.000  -0.000  -0.060
H  0.773  0.000  0.474
H  -0.775  0.000  0.475
    3
step 1488
O  0.000  0.000  -0.061
H  0.783  -0.000  0.479
H  -0.786  -0.000  0.482
    3
step 1489
O  0.000  0.000  -0.061
H  0.793  -0.000  0.487
H  -0.798  -0.000  0.489
    3
step 1490
O  0.000  -0.000  -0.062
H  0.803  0.000  0.494
H  -0.808  -0.000  0.497
    3
step 1491
O  0.000  -0.000  -0.063
H  0.811  0.000  0.501
H  -0.817  0.000  0.504
    3
step 1492
O  0.000  0.000  -0.064
H  0.817  -0.000  0.507
H  -0.822  -0.000  0.510
    3
step 1493
O  0.000  0.000  -0.065
H  0.820  -0.000  0.512
H  -0.824  -0.000  0.514
    3
step 1494
O  0.000  -0.000  -0.065
H  0.819  0.000  0.514
H  -0.821  -0.000  0.515
    3
step 1495
O  0.000  -0.000  -0.065
H  0.815  0.000  0.515
H  -0.815  0.000  0.515
    3
step 1496
O  -0.000  -0.000  -0.065
H  0.807  0.000  0.514
H  -0.806  0.000  0.513
    3
step 1497
O  -0.000  -0.000  -0.064
H  0.797  0.000  0.511
H  -0.794  0.000  0.509
    3
step 1498
O  -0.000  0.000  -0.064
H  0.784  -0.000  0.507
H  -0.780  -0.000  0.504
    3
step 1499
O  -0.000  -0.000  -0.063
H  0.771  0.000  0.503
H  -0.766  0.000  0.500
    3
step 1500
O  -0.000  0.000  -0.063
H  0.759  -0.000  0.499
H  -0.754  -0.000  0.496
    3
step 1501
O  -0.000  -0.000  -0.062
H  0.748  0.000  0.497
H  -0.745  0.000  0.495
    3
step 1502
O  -0.000  0.000  -0.062
H  0.741  -0.000  0.496
H  -0.739  -0.000  0.495
    3
step 1503
O  0.000  -0.000  -0.063
H  0.738  0.000  0.499
H  -0.738  -0.000  0.499
    3
step 1504
O  0.000  -0.000  -0.064
H  0.740  0.000  0.504
H  -0.742  0.000  0.505
    3
step 1505
O  0.000  0.000  -0.065
H  0.745  -0.000  0.511
H  -0.749  -0.000  0.514
    3
step 1506
O  0.000  -0.000  -0.066
H  0.753  0.000  0.520
H  -0.758  -0.000  0.523
    3
step 1507
O  0.000  -0.000  -0.067
H  0.763  0.000  0.529
H  -0.768  0.000  0.532
    3
step 1508
O  0.000  -0.000  -0.068
H  0.772  -0.000  0.538
H  -0.777  0.000  0.541
    3
step 1509
O  0.000  -0.000  -0.069
H  0.781  -0.000  0.545
H  -0.785  0.000  0.547
    3
step 1510
O  0.000  -0.000  -0.069
H  0.788  0.000  0.550
H  -0.791  0.000  0.552
    3
step 1511
O  0.000  -0.000  -0.070
H  0.793  0.000  0.552
H  -0.794  0.000  0.553
    3
step 1512
O  -0.000  -0.000  -0.069
H  0.794  0.000  0.552
H  -0.793  0.000  0.551
    3
step 1513
O  -0.000  0.000  -0.069
H  0.792  -0.000  0.548
H  -0.789  -0.000  0.547
    3
step 1514
O  -0.000  -0.000  -0.068
H  0.787  0.000  0.542
H  -0.783  -0.000  0.539
    3
step 1515
O  -0.000  -0.000  -0.067
H  0.780  0.000  0.533
H  -0.774  0.000  0.530
    3
step 1516
O  -0.000  -0.000  -0.066
H  0.771  0.000  0.523
H  -0.765  0.000  0.520
    3
step 1517
O  -0.000  0.000  -0.064
H  0.762  -0.000  0.512
H  -0.756  0.000  0.509
    3
step 1518
O  -0.000  -0.000  -0.063
H  0.753  0.000  0.501
H  -0.749  0.000  0.499
    3
step 1519
O  -0.000  0.000  -0.062
H  0.747  -0.000  0.492
H  -0.745  -0.000  0.491
    3
step 1520
O  -0.000  0.000  -0.061
H  0.745  -0.000  0.485
H  -0.745  -0.000  0.485
    3
step 1521
O  0.000  -0.000  -0.061
H  0.748  -0.000  0.481
H  -0.749  0.000  0.483
    3
step 1522
O  0.000  0.000  -0.061
H  0.755  -0.000  0.481
H  -0.758  -0.000  0.483
    3
step 1523
O  0.000  -0.000  -0.061
H  0.766  0.000  0.483
H  -0.771  0.000  0.486
    3
step 1524
O  0.000  -0.000  -0.062
H  0.780  0.000  0.487
H  -0.785  0.000  0.491
    3
step 1525
O  0.000  0.000  -0.062
H  0.795  -0.000  0.493
H  -0.800  0.000  0.496
    3
step 1526
O  0.000  0.000  -0.063
H  0.810  -0.000  0.498
H  -0.813  -0.000  0.501
    3
step 1527
O  0.000  -0.000  -0.063
H  0.823  0.000  0.503
H  -0.824  0.000  0.504
    3
step 1528
O  -0.000  -0.000  -0.064
H  0.832  0.000  0.507
H  -0.832  0.000  0.507
    3
step 1529
O  -0.000  0.000  -0.064
H  0.838  -0.000  0.508
H  -0.836  -0.000  0.507
    3
step 1530
O  -0.000  -0.000  -0.064
H  0.839  0.000  0.507
H  -0.835  0.000  0.505
    3
step 1531
O  -0.000  0.000  -0.063
H  0.835  -0.000  0.505
H  -0.830  -0.000  0.501
    3
step 1532
O  -0.000  0.000  -0.063
H  0.827  -0.000  0.499
H  -0.820  -0.000  0.495
    3
step 1533
O  -0.000  -0.000  -0.062
H  0.815  0.000  0.493
H  -0.808  0.000  0.489
    3
step 1534
O  -0.000  0.000  -0.061
H  0.800  -0.000  0.485
H  -0.794  -0.000  0.481
    3
step 1535
O  -0.000  0.000  -0.060
H  0.784  -0.000  0.477
H  -0.779  -0.000  0.474
    3
step 1536
O  -0.000  -0.000  -0.059
H  0.768  0.000  0.471
H  -0.766  0.000  0.469
    3
step 1537
O  0.000  0.000  -0.059
H  0.755  -0.000  0.466
H  -0.756  -0.000  0.467
    3
step 1538
O  0.000  0.000  -0.059
H  0.746  -0.000  0.466
H  -0.750  -0.000  0.468
    3
step 1539
O  0.000  0.000  -0.059
H  0.744  -0.000  0.470
H  -0.750  -0.000  0.473
    3
step 1540
O  0.000  -0.000  -0.061
H  0.747  0.000  0.478
H  -0.754  0.000  0.483
    3
step 1541
O  0.000  0.000  -0.062
H  0.755  -0.000  0.490
H  -0.763  0.000  0.495
    3
step 1542
O  0.000  0.000  -0.064
H  0.767  -0.000  0.505
H  -0.773  -0.000  0.509
    3
step 1543
O  0.000  -0.000  -0.066
H  0.780  0.000  0.521
H  -0.785  0.000  0.523
    3
step 1544
O  0.000  0.000  -0.068
H  0.792  -0.000  0.536
H  -0.795  -0.000  0.537
    3
step 1545
O  -0.000  -0.000  -0.069
H  0.803  0.000  0.549
H  -0.802  0.000  0.549
    3
step 1546
O  -0.000  0.000  -0.070
H  0.809  -0.000  0.560
H  -0.806  0.000  0.558
    3
step 1547
O  -0.000  0.000  -0.071
H  0.812  -0.000  0.567
H  -0.807  -0.000  0.564
    3
step 1548
O  -0.000  0.000  -0.072
H  0.810  -0.000  0.570
H  -0.803  -0.000  0.566
    3
step 1549
O  -0.001  -0.000  -0.071
H  0.802  -0.000  0.570
H  -0.794  0.000  0.565
    3
step 1550
O  -0.001  0.000  -0.071
H  0.791  -0.000  0.565
H  -0.783  -0.000  0.560
    3
step 1551
O  -0.000  -0.000  -0.070
H  0.776  0.000  0.556
H  -0.768  0.000  0.552
    3
step 1552
O  -0.000  -0.000  -0.068
H  0.758  0.000  0.545
H  -0.752  0.000  0.542
    3
step 1553
O  -0.000  0.000  -0.067
H  0.740  -0.000  0.533
H  -0.736  0.000  0.530
    3
step 1554
O  -0.000  -0.000  -0.066
H  0.724  0.000  0.520
H  -0.723  0.000  0.520
    3
step 1555
O  0.000  0.000  -0.064
H  0.712  -0.000  0.510
H  -0.714  -0.000  0.511
    3
step 1556
O  0.000  -0.000  -0.064
H  0.706  0.000  0.503
H  -0.711  0.000  0.506
    3
step 1557
O  0.000  -0.000  -0.063
H  0.708  0.000  0.501
H  -0.714  0.000  0.505
    3
step 1558
O  0.000  -0.000  -0.064
H  0.719  0.000  0.504
H  -0.724  0.000  0.508
    3
step 1559
O  0.000  0.000  -0.065
H  0.735  -0.000  0.511
H  -0.740  -0.000  0.513
    3
step 1560
O  0.000  0.000  -0.066
H  0.756  -0.000  0.520
H  -0.758  -0.000  0.521
    3
step 1561
O  -0.000  -0.000  -0.067
H  0.778  0.000  0.529
H  -0.778  0.000  0.529
    3
step 1562
O  -0.000  -0.000  -0.068
H  0.800  0.000  0.537
H  -0.796  0.000  0.535
    3
step 1563
O  -0.000  -0.000  -0.068
H  0.819  0.000  0.544
H  -0.812  0.000  0.540
    3
step 1564
O  -0.001  -0.000  -0.069
H  0.833  0.000  0.547
H  -0.824  0.000  0.541
    3
step 1565
O  -0.001  -0.000  -0.068
H  0.842  0.000  0.546
H  -0.831  -0.000  0.540
    3
step 1566
O  -0.001  0.000  -0.068
H  0.845  -0.000  0.542
H  -0.833  -0.000  0.535
    3
step 1567
O  -0.001  -0.000  -0.067
H  0.843  0.000  0.534
H  -0.830  -0.000  0.527
    3
step 1568
O  -0.001  -0.000  -0.065
H  0.834  0.000  0.523
H  -0.822  0.000  0.516
    3
step 1569
O  -0.001  0.000  -0.064
H  0.821  -0.000  0.509
H  -0.811  -0.000  0.503
    3
step 1570
O  -0.000  0.000  -0.062
H  0.805  -0.000  0.494
H  -0.797  -0.000  0.489
    3
step 1571
O  -0.000  0.000  -0.060
H  0.786  -0.000  0.478
H  -0.782  -0.000  0.475
    3
step 1572
O  -0.000  -0.000  -0.058
H  0.769  0.000  0.463
H  -0.768  0.000  0.463
    3
step 1573
O  0.000  -0.000  -0.057
H  0.756  0.000  0.452
H  -0.759  0.000  0.454
    3
step 1574
O  0.000  0.000  -0.056
H  0.748  0.000  0.446
H  -0.754  -0.000  0.449
    3
step 1575
O  0.000  0.000  -0.056
H  0.749  -0.000  0.445
H  -0.756  -0.000  0.449
    3
step 1576
O  0.000  0.000  -0.057
H  0.757  -0.000  0.450
H  -0.764  -0.000  0.455
    3
step 1577
O  0.000  0.000  -0.058
H  0.772  -0.000  0.461
H  -0.777  0.000  0.464
    3
step 1578
O  0.000  0.000  -0.060
H  0.789  -0.000  0.474
H  -0.792  -0.000  0.475
    3
step 1579
O  -0.000  -0.000  -0.062
H  0.808  0.000  0.489
H  -0.807  0.000  0.488
    3
step 1580
O  -0.000  0.000  -0.063
H  0.825  -0.000  0.503
H  -0.821  -0.000  0.501
    3
step 1581
O  -0.000  -0.000  -0.065
H  0.838  0.000  0.516
H  -0.831  0.000  0.512
    3
step 1582
O  -0.001  0.000  -0.066
H  0.846  0.000  0.526
H  -0.837  -0.000  0.521
    3
step 1583
O  -0.001  -0.000  -0.067
H  0.848  0.000  0.533
H  -0.838  0.000  0.527
    3
step 1584
O  -0.001  -0.000  -0.067
H  0.845  -0.000  0.536
H  -0.834  0.000  0.530
    3
step 1585
O  -0.001  -0.000  -0.067
H  0.835  0.000  0.536
H  -0.826  0.000  0.531
    3
step 1586
O  -0.000  -0.000  -0.067
H  0.820  0.000  0.533
H  -0.812  0.000  0.528
    3
step 1587
O  -0.000  0.000  -0.066
H  0.801  -0.000  0.526
H  -0.796  -0.000  0.523
    3
step 1588
O  -0.000  -0.000  -0.065
H  0.780  0.000  0.518
H  -0.777  0.000  0.517
    3
step 1589
O  0.000  -0.000  -0.064
H  0.758  0.000  0.510
H  -0.759  0.000  0.510
    3
step 1590
O  0.000  0.000  -0.063
H  0.738  -0.000  0.502
H  -0.742  -0.000  0.504
    3
step 1591
O  0.000  0.000  -0.063
H  0.722  -0.000  0.497
H  -0.729  -0.000  0.501
    3
step 1592
O  0.000  0.000  -0.063
H  0.714  -0.000  0.496
H  -0.721  -0.000  0.500
    3
step 1593
O  0.000  -0.000  -0.063
H  0.713  0.000  0.499
H  -0.720  0.000  0.503
    3
step 1594
O  0.000  0.000  -0.064
H  0.719  -0.000  0.507
H  -0.724  0.000  0.510
    3
step 1595
O  0.000  0.000  -0.065
H  0.732  0.000  0.519
H  -0.734  0.000  0.520
    3
step 1596
O  -0.000  0.000  -0.067
H  0.748  -0.000  0.532
H  -0.746  -0.000  0.531
    3
step 1597
O  -0.000  0.000  -0.068
H  0.765  -0.000  0.545
H  -0.760  -0.000  0.542
    3
step 1598
O  -0.000  -0.000  -0.070
H  0.781  -0.000  0.556
H  -0.774  0.000  0.552
    3
step 1599
O  -0.001  -0.000  -0.071
H  0.794  0.000  0.564
H  -0.785  0.000  0.559
    3
step 1600
O  -0.001  0.000  -0.071
H  0.804  -0.000  0.569
H  -0.794  0.000  0.563
    3
step 1601
O  -0.001  -0.000  -0.071
H  0.809  0.000  0.569
H  -0.799  0.000  0.563
    3
step 1602
O  -0.001  -0.000  -0.071
H  0.810  0.000  0.566
H  -0.800  0.000  0.560
    3
step 1603
O  -0.001  0.000  -0.070
H  0.806  -0.000  0.558
H  -0.798  -0.000  0.554
    3
step 1604
O  -0.000  -0.000  -0.069
H  0.798  0.000  0.548
H  -0.792  0.000  0.544
    3
step 1605
O  -0.000  0.000  -0.067
H  0.787  -0.000  0.534
H  -0.783  -0.000  0.532
    3
step 1606
O  -0.000  0.000  -0.065
H  0.774  0.000  0.519
H  -0.773  0.000  0.518
    3
step 1607
O  0.000  0.000  -0.064
H  0.761  -0.000  0.504
H  -0.763  0.000  0.504
    3
step 1608
O  0.000  -0.000  -0.062
H  0.750  0.000  0.489
H  -0.754  0.000  0.492
    3
step 1609
O  0.000  0.000  -0.060
H  0.744  -0.000  0.478
H  -0.749  -0.000  0.481
    3
step 1610
O  0.000  -0.000  -0.060
H  0.742  0.000  0.471
H  -0.748  -0.000  0.474
    3
step 1611
O  0.000  -0.000  -0.059
H  0.748  0.000  0.468
H  -0.752  0.000  0.471
    3
step 1612
O  0.000  0.000  -0.059
H  0.759  0.000  0.470
H  -0.760  0.000  0.471
    3
step 1613
O  -0.000  -0.000  -0.060
H  0.774  0.000  0.475
H  -0.773  0.000  0.474
    3
step 1614
O  -0.000  0.000  -0.061
H  0.791  0.000  0.482
H  -0.788  0.000  0.480
    3
step 1615
O  -0.000  0.000  -0.061
H  0.808  -0.000  0.489
H  -0.803  0.000  0.486
    3
step 1616
O  -0.000  0.000  -0.062
H  0.823  -0.000  0.497
H  -0.816  -0.000  0.493
    3
step 1617
O  -0.000  0.000  -0.063
H  0.834  -0.000  0.502
H  -0.827  -0.000  0.498
    3
step 1618
O  -0.000  -0.000  -0.064
H  0.842  0.000  0.506
H  -0.834  0.000  0.502
    3
step 1619
O  -0.000  -0.000  -0.064
H  0.844  0.000  0.508
H  -0.837  0.000  0.504
    3
step 1620
O  -0.000  -0.000  -0.064
H  0.841  0.000  0.507
H  -0.836  0.000  0.504
    3
step 1621
O  -0.000  0.000  -0.063
H  0.833  -0.000  0.504
H  -0.830  0.000  0.501
    3
step 1622
O  -0.000  0.000  -0.063
H  0.821  -0.000  0.498
H  -0.820  -0.000  0.498
    3
step 1623
O  0.000  0.000  -0.062
H  0.807  -0.000  0.492
H  -0.808  0.000  0.493
    3
step 1624
O  0.000  0.000  -0.061
H  0.790  0.000  0.485
H  -0.793  0.000  0.487
    3
step 1625
O  0.000  0.000  -0.061
H  0.774  -0.000  0.479
H  -0.779  -0.000  0.482
    3
step 1626
O  0.000  0.000  -0.060
H  0.760  -0.000  0.475
H  -0.766  -0.000  0.478
    3
step 1627
O  0.000  0.000  -0.060
H  0.750  -0.000  0.474
H  -0.755  -0.000  0.477
    3
step 1628
O  0.000  0.000  -0.060
H  0.745  -0.000  0.476
H  -0.749  -0.000  0.478
    3
step 1629
O  0.000  0.000  -0.061
H  0.746  -0.000  0.482
H  -0.748  0.000  0.483
    3
step 1630
O  -0.000  -0.000  -0.062
H  0.751  0.000  0.491
H  -0.751  0.000  0.491
    3
step 1631
O  -0.000  0.000  -0.063
H  0.760  -0.000  0.503
H  -0.757  -0.000  0.502
    3
step 1632
O  -0.000  0.000  -0.065
H  0.770  0.000  0.516
H  -0.766  0.000  0.513
    3
step 1633
O  -0.000  -0.000  -0.066
H  0.781  0.000  0.528
H  -0.775  0.000  0.525
    3
step 1634
O  -0.000  0.000  -0.068
H  0.790  -0.000  0.539
H  -0.784  0.000  0.535
    3
step 1635
O  -0.000  0.000  -0.069
H  0.796  -0.000  0.548
H  -0.791  0.000  0.544
    3
step 1636
O  -0.000  -0.000  -0.070
H  0.800  0.000  0.553
H  -0.795  0.000  0.550
    3
step 1637
O  -0.000  0.000  -0.070
H  0.799  -0.000  0.556
H  -0.796  -0.000  0.554
    3
step 1638
O  -0.000  0.000  -0.070
H  0.795  -0.000  0.555
H  -0.793  -0.000  0.554
    3
step 1639
O  -0.000  0.000  -0.069
H  0.788  -0.000  0.551
H  -0.788  -0.000  0.551
    3
step 1640
O  0.000  0.000  -0.069
H  0.778  0.000  0.544
H  -0.780  0.000  0.545
    3
step 1641
O  0.000  -0.000  -0.068
H  0.766  0.000  0.535
H  -0.770  0.000  0.537
    3
step 1642
O  0.000  -0.000  -0.066
H  0.754  0.000  0.525
H  -0.759  0.000  0.528
    3
step 1643
O  0.000  0.000  -0.065
H  0.744  -0.000  0.516
H  -0.748  0.000  0.518
    3
step 1644
O  0.000  0.000  -0.064
H  0.736  -0.000  0.507
H  -0.740  -0.000  0.510
    3
step 1645
O  0.000  0.000  -0.063
H  0.732  -0.000  0.501
H  -0.735  -0.000  0.503
    3
step 1646
O  0.000  0.000  -0.063
H  0.733  -0.000  0.498
H  -0.734  -0.000  0.498
    3
step 1647
O  -0.000  -0.000  -0.063
H  0.740  0.000  0.498
H  -0.739  0.000  0.497
    3
step 1648
O  -0.000  0.000  -0.063
H  0.750  0.000  0.500
H  -0.747  0.000  0.498
    3
step 1649
O  -0.000  -0.000  -0.063
H  0.764  0.000  0.505
H  -0.759  -0.000  0.502
    3
step 1650
O  -0.000  -0.000  -0.064
H  0.779  -0.000  0.510
H  -0.773  0.000  0.507
    3
step 1651
O  -0.000  0.000  -0.065
H  0.793  -0.000  0.515
H  -0.787  -0.000  0.511
    3
step 1652
O  -0.000  -0.000  -0.065
H  0.806  0.000  0.519
H  -0.800  0.000  0.515
    3
step 1653
O  -0.000  0.000  -0.065
H  0.815  -0.000  0.521
H  -0.811  -0.000  0.518
    3
step 1654
O  -0.000  0.000  -0.065
H  0.822  -0.000  0.521
H  -0.819  -0.000  0.519
    3
step 1655
O  -0.000  -0.000  -0.065
H  0.824  0.000  0.518
H  -0.823  0.000  0.517
    3
step 1656
O  0.000  0.000  -0.065
H  0.822  -0.000  0.513
H  -0.823  -0.000  0.514
    3
step 1657
O  0.000  -0.000  -0.064
H  0.816  0.000  0.507
H  -0.819  0.000  0.508
    3
step 1658
O  0.000  -0.000  -0.063
H  0.808  0.000  0.498
H  -0.811  0.000  0.501
    3
step 1659
O  0.000  0.000  -0.062
H  0.797  -0.000  0.489
H  -0.801  -0.000  0.492
    3
step 1660
O  0.000  -0.000  -0.061
H  0.786  0.000  0.480
H  -0.790  0.000  0.483
    3
step 1661
O  0.000  -0.000  -0.060
H  0.775  0.000  0.473
H  -0.779  -0.000  0.475
    3
step 1662
O  0.000  0.000  -0.059
H  0.767  0.000  0.467
H  -0.769  -0.000  0.469
    3
step 1663
O  0.000  0.000  -0.059
H  0.762  -0.000  0.464
H  -0.763  -0.000  0.465
    3
step 1664
O  -0.000  0.000  -0.059
H  0.761  -0.000  0.465
H  -0.760  -0.000  0.464
    3
step 1665
O  -0.000  0.000  -0.059
H  0.765  0.000  0.469
H  -0.762  -0.000  0.467
    3
step 1666
O  -0.000  -0.000  -0.060
H  0.773  0.000  0.476
H  -0.768  0.000  0.474
    3
step 1667
O  -0.000  -0.000  -0.061
H  0.782  0.000  0.485
H  -0.777  0.000  0.482
    3
step 1668
O  -0.000  -0.000  -0.062
H  0.792  -0.000  0.495
H  -0.788  0.000  0.492
    3
step 1669
O  -0.000  0.000  -0.063
H  0.801  0.000  0.505
H  -0.798  -0.000  0.503
    3
step 1670
O  -0.000  0.000  -0.065
H  0.809  0.000  0.514
H  -0.806  -0.000  0.512
    3
step 1671
O  -0.000  -0.000  -0.066
H  0.813  0.000  0.521
H  -0.812  -0.000  0.521
    3
step 1672
O  0.000  0.000  -0.066
H  0.814  -0.000  0.526
H  -0.815  0.000  0.527
    3
step 1673
O  0.000  -0.000  -0.067
H  0.812  0.000  0.529
H  -0.814  0.000  0.530
    3
step 1674
O  0.000  -0.000  -0.067
H  0.806  0.000  0.529
H  -0.809  0.000  0.531
    3
step 1675
O  0.000  0.000  -0.067
H  0.796  -0.000  0.527
H  -0.801  -0.000  0.530
    3
step 1676
O  0.000  -0.000  -0.066
H  0.785  0.000  0.523
H  -0.790  -0.000  0.526
    3
step 1677
O  0.000  -0.000  -0.066
H  0.772  -0.000  0.518
H  -0.776  0.000  0.521
    3
step 1678
O  0.000  -0.000  -0.065
H  0.758  0.000  0.513
H  -0.762  -0.000  0.515
    3
step 1679
O  0.000  -0.000  -0.064
H  0.747  0.000  0.508
H  -0.749  0.000  0.510
    3
step 1680
O  0.000  0.000  -0.064
H  0.738  -0.000  0.505
H  -0.739  0.000  0.505
    3
step 1681
O  -0.000  -0.000  -0.063
H  0.733  -0.000  0.504
H  -0.732  0.000  0.503
    3
step 1682
O  -0.000  -0.000  -0.064
H  0.733  0.000  0.505
H  -0.730  0.000  0.503
    3
step 1683
O  -0.000  0.000  -0.064
H  0.737  -0.000  0.509
H  -0.733  0.000  0.507
    3
step 1684
O  -0.000  -0.000  -0.065
H  0.745  -0.000  0.515
H  -0.740  0.000  0.513
    3
step 1685
O  -0.000  0.000  -0.066
H  0.755  -0.000  0.523
H  -0.751  -0.000  0.520
    3
step 1686
O  -0.000  0.000  -0.067
H  0.767  -0.000  0.530
H  -0.763  -0.000  0.528
    3
step 1687
O  -0.000  -0.000  -0.068
H  0.778  0.000  0.537
H  -0.776  0.000  0.535
    3
step 1688
O  -0.000  0.000  -0.068
H  0.788  -0.000  0.541
H  -0.787  0.000  0.541
    3
step 1689
O  0.000  -0.000  -0.069
H  0.795  0.000  0.544
H  -0.796  0.000  0.545
    3
step 1690
O  0.000  0.000  -0.069
H  0.800  0.000  0.544
H  -0.802  -0.000  0.546
    3
step 1691
O  0.000  0.000  -0.068
H  0.801  -0.000  0.541
H  -0.805  -0.000  0.544
    3
step 1692
O  0.000  -0.000  -0.068
H  0.799  -0.000  0.536
H  -0.804  0.000  0.539
    3
step 1693
O  0.000  0.000  -0.067
H  0.794  -0.000  0.528
H  -0.799  0.000  0.531
    3
step 1694
O  0.000  -0.000  -0.065
H  0.787  0.000  0.519
H  -0.792  -0.000  0.521
    3
step 1695
O  0.000  -0.000  -0.064
H  0.779  0.000  0.508
H  -0.782  -0.000  0.510
    3
step 1696
O  0.000  0.000  -0.063
H  0.770  0.000  0.497
H  -0.772  -0.000  0.498
    3
step 1697
O  -0.000  0.000  -0.061
H  0.763  -0.000  0.487
H  -0.763  -0.000  0.487
    3
step 1698
O  -0.000  0.000  -0.060
H  0.758  -0.000  0.479
H  -0.756  0.000  0.478
    3
step 1699
O  -0.000  -0.000  -0.060
H  0.757  0.000  0.474
H  -0.753  0.000  0.472
    3
step 1700
O  -0.000  -0.000  -0.059
H  0.760  0.000  0.472
H  -0.755  0.000  0.469
    3
step 1701
O  -0.000  -0.000  -0.059
H  0.767  0.000  0.472
H  -0.762  -0.000  0.469
    3
step 1702
O  -0.000  0.000  -0.060
H  0.777  -0.000  0.476
H  -0.772  0.000  0.473
    3
step 1703
O  -0.000  -0.000  -0.060
H  0.788  -0.000  0.481
H  -0.785  0.000  0.479
    3
step 1704
O  -0.000  0.000  -0.061
H  0.801  0.000  0.487
H  -0.799  0.000  0.486
    3
step 1705
O  0.000  0.000  -0.062
H  0.812  -0.000  0.493
H  -0.812  -0.000  0.494
    3
step 1706
O  0.000  0.000  -0.063
H  0.821  -0.000  0.499
H  -0.823  -0.000  0.500
    3
step 1707
O  0.000  -0.000  -0.064
H  0.827  0.000  0.503
H  -0.831  -0.000  0.505
    3
step 1708
O  0.000  0.000  -0.064
H  0.829  -0.000  0.505
H  -0.834  0.000  0.508
    3
step 1709
O  0.000  0.000  -0.064
H  0.827  0.000  0.506
H  -0.833  -0.000  0.509
    3
step 1710
O  0.000  0.000  -0.064
H  0.822  0.000  0.505
H  -0.827  -0.000  0.508
    3
step 1711
O  0.000  -0.000  -0.063
H  0.813  -0.000  0.502
H  -0.818  0.000  0.505
    3
step 1712
O  0.000  0.000  -0.063
H  0.802  0.000  0.498
H  -0.805  -0.000  0.500
    3
step 1713
O  0.000  -0.000  -0.062
H  0.788  -0.000  0.493
H  -0.790  0.000  0.494
    3
step 1714
O  -0.000  0.000  -0.062
H  0.775  0.000  0.489
H  -0.774  -0.000  0.489
    3
step 1715
O  -0.000  -0.000  -0.061
H  0.762  0.000  0.486
H  -0.760  0.000  0.484
    3
step 1716
O  -0.000  -0.000  -0.061
H  0.753  0.000  0.484
H  -0.749  0.000  0.482
    3
step 1717
O  -0.000  0.000  -0.061
H  0.747  0.000  0.486
H  -0.742  -0.000  0.483
    3
step 1718
O  -0.000  0.000  -0.062
H  0.745  -0.000  0.490
H  -0.740  0.000  0.487
    3
step 1719
O  -0.000  0.000  -0.063
H  0.747  -0.000  0.497
H  -0.744  0.000  0.495
    3
step 1720
O  -0.000  -0.000  -0.064
H  0.753  0.000  0.507
H  -0.751  -0.000  0.506
    3
step 1721
O  -0.000  0.000  -0.065
H  0.761  0.000  0.518
H  -0.761  -0.000  0.517
    3
step 1722
O  0.000  0.000  -0.067
H  0.771  0.000  0.528
H  -0.772  -0.000  0.530
    3
step 1723
O  0.000  -0.000  -0.068
H  0.779  0.000  0.539
H  -0.783  -0.000  0.541
    3
step 1724
O  0.000  0.000  -0.069
H  0.786  -0.000  0.547
H  -0.791  0.000  0.550
    3
step 1725
O  0.000  -0.000  -0.070
H  0.791  0.000  0.553
H  -0.797  -0.000  0.556
    3
step 1726
O  0.000  0.000  -0.070
H  0.793  -0.000  0.556
H  -0.799  -0.000  0.559
    3
step 1727
O  0.000  -0.000  -0.070
H  0.792  0.000  0.556
H  -0.798  -0.000  0.559
    3
step 1728
O  0.000  -0.000  -0.070
H  0.788  0.000  0.553
H  -0.792  -0.000  0.555
    3
step 1729
O  0.000  -0.000  -0.069
H  0.781  0.000  0.547
H  -0.784  0.000  0.548
    3
step 1730
O  0.000  -0.000  -0.068
H  0.772  0.000  0.538
H  -0.773  0.000  0.539
    3
step 1731
O  -0.000  -0.000  -0.067
H  0.762  0.000  0.528
H  -0.760  0.000  0.528
    3
step 1732
O  -0.000  0.000  -0.065
H  0.752  -0.000  0.518
H  -0.748  0.000  0.516
    3
step 1733
O  -0.000  0.000  -0.064
H  0.743  -0.000  0.508
H  -0.738  0.000  0.505
    3
step 1734
O  -0.000  -0.000  -0.063
H  0.738  -0.000  0.499
H  -0.732  0.000  0.496
    3
step 1735
O  -0.000  0.000  -0.062
H  0.737  -0.000  0.494
H  -0.731  0.000  0.490
    3
step 1736
O  -0.000  -0.000  -0.062
H  0.741  0.000  0.491
H  -0.736  -0.000  0.488
    3
step 1737
O  -0.000  -0.000  -0.062
H  0.750  -0.000  0.491
H  -0.747  0.000  0.489
    3
step 1738
O  -0.000  0.000  -0.062
H  0.762  0.000  0.494
H  -0.761  -0.000  0.493
    3
step 1739
O  0.000  0.000  -0.063
H  0.777  -0.000  0.498
H  -0.779  -0.000  0.499
    3
step 1740
O  0.000  -0.000  -0.064
H  0.793  0.000  0.503
H  -0.796  -0.000  0.505
    3
step 1741
O  0.000  -0.000  -0.064
H  0.808  0.000  0.507
H  -0.813  0.000  0.511
    3
step 1742
O  0.000  -0.000  -0.065
H  0.820  0.000  0.511
H  -0.826  0.000  0.514
    3
step 1743
O  0.000  -0.000  -0.065
H  0.830  0.000  0.512
H  -0.836  0.000  0.516
    3
step 1744
O  0.000  -0.000  -0.065
H  0.835  -0.000  0.512
H  -0.841  0.000  0.515
    3
step 1745
O  0.000  0.000  -0.064
H  0.836  0.000  0.509
H  -0.840  -0.000  0.511
    3
step 1746
O  0.000  -0.000  -0.064
H  0.833  -0.000  0.504
H  -0.835  -0.000  0.505
    3
step 1747
O  0.000  0.000  -0.063
H  0.825  0.000  0.497
H  -0.826  0.000  0.497
    3
step 1748
O  -0.000  -0.000  -0.061
H  0.814  0.000  0.488
H  -0.812  -0.000  0.487
    3
step 1749
O  -0.000  0.000  -0.060
H  0.801  0.000  0.479
H  -0.797  -0.000  0.476
    3
step 1750
O  -0.000  -0.000  -0.059
H  0.787  0.000  0.470
H  -0.781  0.000  0.466
    3
step 1751
O  -0.000  -0.000  -0.058
H  0.773  0.000  0.462
H  -0.767  -0.000  0.458
    3
step 1752
O  -0.000  -0.000  -0.057
H  0.763  -0.000  0.457
H  -0.757  0.000  0.453
    3
step 1753
O  -0.000  -0.000  -0.057
H  0.757  0.000  0.456
H  -0.752  -0.000  0.453
    3
step 1754
O  -0.000  0.000  -0.058
H  0.756  -0.000  0.459
H  -0.754  -0.000  0.458
    3
step 1755
O  0.000  0.000  -0.059
H  0.761  -0.000  0.466
H  -0.762  0.000  0.466
    3
step 1756
O  0.000  0.000  -0.060
H  0.770  0.000  0.477
H  -0.774  -0.000  0.479
    3
step 1757
O  0.000  0.000  -0.062
H  0.782  -0.000  0.490
H  -0.788  0.000  0.493
    3
step 1758
O  0.000  -0.000  -0.064
H  0.795  -0.000  0.504
H  -0.802  0.000  0.508
    3
step 1759
O  0.000  -0.000  -0.065
H  0.807  -0.000  0.518
H  -0.815  0.000  0.522
    3
step 1760
O  0.000  0.000  -0.067
H  0.817  0.000  0.530
H  -0.824  -0.000  0.534
    3
step 1761
O  0.000  -0.000  -0.068
H  0.822  0.000  0.540
H  -0.829  0.000  0.543
    3
step 1762
O  0.000  0.000  -0.069
H  0.824  -0.000  0.547
H  -0.828  0.000  0.549
    3
step 1763
O  0.000  0.000  -0.069
H  0.821  -0.000  0.550
H  -0.823  -0.000  0.552
    3
step 1764
O  -0.000  -0.000  -0.069
H  0.813  -0.000  0.550
H  -0.812  0.000  0.550
    3
step 1765
O  -0.000  0.000  -0.069
H  0.800  0.000  0.547
H  -0.798  -0.000  0.546
    3
step 1766
O  -0.000  -0.000  -0.068
H  0.784  0.000  0.541
H  -0.779  -0.000  0.538
    3
step 1767
O  -0.000  0.000  -0.067
H  0.766  -0.000  0.532
H  -0.759  0.000  0.528
    3
step 1768
O  -0.000  -0.000  -0.066
H  0.747  -0.000  0.523
H  -0.740  0.000  0.518
    3
step 1769
O  -0.000  -0.000  -0.064
H  0.730  0.000  0.514
H  -0.722  -0.000  0.509
    3
step 1770
O  -0.000  -0.000  -0.064
H  0.717  0.000  0.507
H  -0.711  0.000  0.503
    3
step 1771
O  -0.000  -0.000  -0.063
H  0.710  0.000  0.503
H  -0.706  0.000  0.501
    3
step 1772
O  -0.000  0.000  -0.063
H  0.710  0.000  0.503
H  -0.710  -0.000  0.503
    3
step 1773
O  0.000  -0.000  -0.064
H  0.718  0.000  0.508
H  -0.721  -0.000  0.510
    3
step 1774
O  0.000  0.000  -0.065
H  0.732  0.000  0.517
H  -0.738  -0.000  0.520
    3
step 1775
O  0.000  -0.000  -0.067
H  0.750  0.000  0.527
H  -0.757  -0.000  0.531
    3
step 1776
O  0.000  -0.000  -0.068
H  0.771  0.000  0.538
H  -0.778  0.000  0.542
    3
step 1777
O  0.000  -0.000  -0.069
H  0.791  0.000  0.547
H  -0.797  -0.000  0.551
    3
step 1778
O  0.000  0.000  -0.070
H  0.808  0.000  0.554
H  -0.813  -0.000  0.557
    3
step 1779
O  0.000  0.000  -0.070
H  0.822  0.000  0.558
H  -0.825  -0.000  0.559
    3
step 1780
O  -0.000  -0.000  -0.070
H  0.831  -0.000  0.558
H  -0.831  0.000  0.557
    3
step 1781
O  -0.000  0.000  -0.070
H  0.835  0.000  0.553
H  -0.832  -0.000  0.551
    3
step 1782
O  -0.000  -0.000  -0.068
H  0.834  -0.000  0.545
H  -0.828  0.000  0.541
    3
step 1783
O  -0.001  -0.000  -0.067
H  0.827  0.000  0.533
H  -0.819  0.000  0.528
    3
step 1784
O  -0.001  -0.000  -0.065
H  0.816  0.000  0.518
H  -0.805  -0.000  0.512
    3
step 1785
O  -0.001  -0.000  -0.063
H  0.801  0.000  0.501
H  -0.790  -0.000  0.494
    3
step 1786
O  -0.001  0.000  -0.060
H  0.785  0.000  0.483
H  -0.774  -0.000  0.476
    3
step 1787
O  -0.001  0.000  -0.058
H  0.769  -0.000  0.466
H  -0.760  0.000  0.461
    3
step 1788
O  -0.000  -0.000  -0.057
H  0.757  0.000  0.452
H  -0.752  -0.000  0.449
    3
step 1789
O  -0.000  -0.000  -0.056
H  0.751  0.000  0.443
H  -0.750  0.000  0.442
    3
step 1790
O  0.000  -0.000  -0.055
H  0.753  0.000  0.439
H  -0.756  0.000  0.441
    3
step 1791
O  0.000  0.000  -0.056
H  0.763  0.000  0.441
H  -0.769  -0.000  0.445
    3
step 1792
O  0.001  -0.000  -0.057
H  0.779  0.000  0.448
H  -0.787  -0.000  0.453
    3
step 1793
O  0.001  -0.000  -0.058
H  0.798  0.000  0.458
H  -0.807  0.000  0.463
    3
step 1794
O  0.000  0.000  -0.060
H  0.819  -0.000  0.470
H  -0.827  0.000  0.475
    3
step 1795
O  0.000  0.000  -0.061
H  0.838  -0.000  0.482
H  -0.843  -0.000  0.486
    3
step 1796
O  0.000  -0.000  -0.062
H  0.853  0.000  0.493
H  -0.856  0.000  0.495
    3
step 1797
O  -0.000  0.000  -0.063
H  0.864  -0.000  0.502
H  -0.863  0.000  0.502
    3
step 1798
O  -0.000  -0.000  -0.064
H  0.868  0.000  0.508
H  -0.864  0.000  0.506
    3
step 1799
O  -0.000  -0.000  -0.064
H  0.865  0.000  0.511
H  -0.859  -0.000  0.507
    3
step 1800
O  -0.001  0.000  -0.064
H  0.857  0.000  0.511
H  -0.848  -0.000  0.506
    3
step 1801
O  -0.001  -0.000  -0.064
H  0.842  0.000  0.508
H  -0.832  -0.000  0.502
    3
step 1802
O  -0.001  -0.000  -0.063
H  0.823  -0.000  0.503
H  -0.813  0.000  0.496
    3
step 1803
O  -0.001  -0.000  -0.062
H  0.801  0.000  0.496
H  -0.791  0.000  0.490
    3
step 1804
O  -0.000  -0.000  -0.061
H  0.778  0.000  0.489
H  -0.770  0.000  0.484
    3
step 1805
O  -0.000  -0.000  -0.061
H  0.756  0.000  0.482
H  -0.752  -0.000  0.480
    3
step 1806
O  -0.000  0.000  -0.060
H  0.738  0.000  0.479
H  -0.738  -0.000  0.479
    3
step 1807
O  0.000  0.000  -0.061
H  0.726  -0.000  0.480
H  -0.730  -0.000  0.482
    3
step 1808
O  0.000  -0.000  -0.061
H  0.723  0.000  0.485
H  -0.730  0.000  0.489
    3
step 1809
O  0.001  -0.000  -0.063
H  0.727  0.000  0.495
H  -0.735  -0.000  0.501
    3
step 1810
O  0.001  0.000  -0.064
H  0.737  -0.000  0.509
H  -0.745  -0.000  0.514
    3
step 1811
O  0.000  0.000  -0.066
H  0.750  -0.000  0.525
H  -0.757  -0.000  0.529
    3
step 1812
O  0.000  0.000  -0.068
H  0.766  -0.000  0.540
H  -0.770  0.000  0.543
    3
step 1813
O  0.000  -0.000  -0.070
H  0.780  0.000  0.554
H  -0.782  0.000  0.555
    3
step 1814
O  -0.000  -0.000  -0.071
H  0.792  0.000  0.565
H  -0.790  -0.000  0.564
    3
step 1815
O  -0.000  0.000  -0.072
H  0.801  0.000  0.572
H  -0.796  -0.000  0.569
    3
step 1816
O  -0.000  -0.000  -0.072
H  0.805  0.000  0.574
H  -0.797  -0.000  0.570
    3
step 1817
O  -0.001  0.000  -0.072
H  0.804  -0.000  0.573
H  -0.795  -0.000  0.568
    3
step 1818
O  -0.001  -0.000  -0.071
H  0.799  -0.000  0.567
H  -0.789  0.000  0.561
    3
step 1819
O  -0.001  0.000  -0.070
H  0.791  -0.000  0.558
H  -0.781  0.000  0.552
    3
step 1820
O  -0.001  0.000  -0.068
H  0.779  -0.000  0.545
H  -0.770  0.000  0.540
    3
step 1821
O  -0.000  0.000  -0.067
H  0.766  0.000  0.531
H  -0.759  -0.000  0.527
    3
step 1822
O  -0.000  0.000  -0.065
H  0.753  -0.000  0.516
H  -0.748  -0.000  0.514
    3
step 1823
O  -0.000  -0.000  -0.063
H  0.741  0.000  0.502
H  -0.741  -0.000  0.502
    3
step 1824
O  0.000  0.000  -0.062
H  0.734  -0.000  0.491
H  -0.737  -0.000  0.492
    3
step 1825
O  0.000  -0.000  -0.061
H  0.733  0.000  0.483
H  -0.739  -0.000  0.486
    3
step 1826
O  0.000  -0.000  -0.061
H  0.738  -0.000  0.480
H  -0.745  0.000  0.484
    3
step 1827
O  0.000  -0.000  -0.061
H  0.749  -0.000  0.480
H  -0.756  0.000  0.484
    3
step 1828
O  0.000  0.000  -0.061
H  0.765  -0.000  0.484
H  -0.770  0.000  0.488
    3
step 1829
O  0.000  -0.000  -0.062
H  0.783  0.000  0.490
H  -0.786  0.000  0.492
    3
step 1830
O  0.000  -0.000  -0.063
H  0.801  0.000  0.497
H  -0.801  -0.000  0.497
    3
step 1831
O  -0.000  0.000  -0.063
H  0.817  -0.000  0.502
H  -0.815  -0.000  0.501
    3
step 1832
O  -0.000  0.000  -0.064
H  0.830  -0.000  0.507
H  -0.826  0.000  0.504
    3
step 1833
O  -0.000  0.000  -0.064
H  0.839  -0.000  0.509
H  -0.832  0.000  0.505
    3
step 1834
O  -0.001  0.000  -0.064
H  0.843  0.000  0.509
H  -0.835  -0.000  0.504
    3
step 1835
O  -0.001  -0.000  -0.063
H  0.842  0.000  0.506
H  -0.833  0.000  0.501
    3
step 1836
O  -0.001  -0.000  -0.063
H  0.836  0.000  0.502
H  -0.827  0.000  0.497
    3
step 1837
O  -0.000  0.000  -0.062
H  0.825  -0.000  0.495
H  -0.818  -0.000  0.491
    3
step 1838
O  -0.000  0.000  -0.061
H  0.812  0.000  0.487
H  -0.807  -0.000  0.484
    3
step 1839
O  -0.000  0.000  -0.060
H  0.796  -0.000  0.478
H  -0.794  -0.000  0.477
    3
step 1840
O  0.000  0.000  -0.059
H  0.781  -0.000  0.471
H  -0.781  -0.000  0.471
    3
step 1841
O  0.000  -0.000  -0.059
H  0.767  0.000  0.465
H  -0.770  0.000  0.467
    3
step 1842
O  0.000  0.000  -0.058
H  0.757  -0.000  0.462
H  -0.763  -0.000  0.466
    3
step 1843
O  0.000  -0.000  -0.059
H  0.753  0.000  0.463
H  -0.759  0.000  0.467
    3
step 1844
O  0.000  0.000  -0.059
H  0.753  0.000  0.469
H  -0.760  -0.000  0.473
    3
step 1845
O  0.000  0.000  -0.060
H  0.759  -0.000  0.478
H  -0.765  0.000  0.481
    3
step 1846
O  0.000  0.000  -0.062
H  0.769  -0.000  0.489
H  -0.772  0.000  0.491
    3
step 1847
O  0.000  0.000  -0.063
H  0.780  -0.000  0.502
H  -0.780  -0.000  0.502
    3
step 1848
O  -0.000  0.000  -0.065
H  0.792  -0.000  0.515
H  -0.789  0.000  0.514
    3
step 1849
O  -0.000  0.000  -0.066
H  0.801  -0.000  0.527
H  -0.796  -0.000  0.524
    3
step 1850
O  -0.000  0.000  -0.067
H  0.808  0.000  0.537
H  -0.801  -0.000  0.533
    3
step 1851
O  -0.000  0.000  -0.068
H  0.811  -0.000  0.544
H  -0.803  -0.000  0.539
    3
step 1852
O  -0.001  -0.000  -0.069
H  0.810  0.000  0.548
H  -0.802  0.000  0.543
    3
step 1853
O  -0.000  -0.000  -0.069
H  0.805  -0.000  0.548
H  -0.797  -0.000  0.544
    3
step 1854
O  -0.000  -0.000  -0.069
H  0.796  -0.000  0.546
H  -0.790  0.000  0.542
    3
step 1855
O  -0.000  0.000  -0.068
H  0.784  -0.000  0.540
H  -0.780  -0.000  0.538
    3
step 1856
O  -0.000  -0.000  -0.067
H  0.770  0.000  0.533
H  -0.768  0.000  0.532
    3
step 1857
O  0.000  -0.000  -0.066
H  0.755  0.000  0.524
H  -0.756  -0.000  0.525
    3
step 1858
O  0.000  0.000  -0.065
H  0.742  -0.000  0.516
H  -0.745  0.000  0.518
    3
step 1859
O  0.000  -0.000  -0.064
H  0.731  0.000  0.509
H  -0.737  0.000  0.512
    3
step 1860
O  0.000  -0.000  -0.064
H  0.725  -0.000  0.504
H  -0.732  0.000  0.508
    3
step 1861
O  0.000  -0.000  -0.064
H  0.725  0.000  0.502
H  -0.731  0.000  0.506
    3
step 1862
O  0.000  -0.000  -0.064
H  0.730  0.000  0.504
H  -0.735  -0.000  0.507
    3
step 1863
O  0.000  -0.000  -0.064
H  0.740  0.000  0.508
H  -0.742  -0.000  0.510
    3
step 1864
O  -0.000  -0.000  -0.065
H  0.754  0.000  0.515
H  -0.754  0.000  0.514
    3
step 1865
O  -0.000  0.000  -0.066
H  0.770  -0.000  0.522
H  -0.766  -0.000  0.520
    3
step 1866
O  -0.000  0.000  -0.066
H  0.785  0.000  0.528
H  -0.779  0.000  0.525
    3
step 1867
O  -0.000  0.000  -0.067
H  0.799  -0.000  0.533
H  -0.791  0.000  0.529
    3
step 1868
O  -0.001  -0.000  -0.067
H  0.809  0.000  0.536
H  -0.801  0.000  0.531
    3
step 1869
O  -0.000  0.000  -0.067
H  0.816  0.000  0.536
H  -0.809  -0.000  0.531
    3
step 1870
O  -0.000  0.000  -0.067
H  0.819  0.000  0.533
H  -0.812  -0.000  0.529
    3
step 1871
O  -0.000  0.000  -0.066
H  0.818  -0.000  0.527
H  -0.812  -0.000  0.524
    3
step 1872
O  -0.000  0.000  -0.065
H  0.812  -0.000  0.519
H  -0.809  -0.000  0.517
    3
step 1873
O  -0.000  0.000  -0.064
H  0.804  0.000  0.509
H  -0.803  -0.000  0.508
    3
step 1874
O  0.000  -0.000  -0.063
H  0.793  0.000  0.497
H  -0.794  0.000  0.498
    3
step 1875
O  0.000  -0.000  -0.061
H  0.781  0.000  0.485
H  -0.785  0.000  0.488
    3
step 1876
O  0.000  -0.000  -0.060
H  0.770  0.000  0.475
H  -0.776  -0.000  0.478
    3
step 1877
O  0.000  -0.000  -0.059
H  0.762  0.000  0.466
H  -0.769  0.000  0.470
    3
step 1878
O  0.000  -0.000  -0.058
H  0.758  0.000  0.461
H  -0.764  0.000  0.465
    3
step 1879
O  0.000  -0.000  -0.058
H  0.759  0.000  0.460
H  -0.764  0.000  0.463
    3
step 1880
O  0.000  -0.000  -0.058
H  0.765  -0.000  0.463
H  -0.767  0.000  0.464
    3
step 1881
O  -0.000  0.000  -0.059
H  0.775  0.000  0.469
H  -0.774  -0.000  0.468
    3
step 1882
O  -0.000  0.000  -0.060
H  0.788  -0.000  0.477
H  -0.784  -0.000  0.475
    3
step 1883
O  -0.000  0.000  -0.061
H  0.801  -0.000  0.486
H  -0.795  -0.000  0.483
    3
step 1884
O  -0.000  0.000  -0.062
H  0.813  0.000  0.495
H  -0.806  -0.000  0.491
    3
step 1885
O  -0.000  0.000  -0.063
H  0.823  -0.000  0.504
H  -0.815  -0.000  0.499
    3
step 1886
O  -0.000  -0.000  -0.064
H  0.829  0.000  0.510
H  -0.822  0.000  0.506
    3
step 1887
O  -0.000  0.000  -0.065
H  0.830  0.000  0.515
H  -0.825  0.000  0.512
    3
step 1888
O  -0.000  0.000  -0.065
H  0.828  -0.000  0.517
H  -0.824  -0.000  0.515
    3
step 1889
O  -0.000  0.000  -0.065
H  0.821  -0.000  0.517
H  -0.819  -0.000  0.516
    3
step 1890
O  0.000  0.000  -0.065
H  0.810  -0.000  0.515
H  -0.811  -0.000  0.515
    3
step 1891
O  0.000  0.000  -0.064
H  0.796  0.000  0.510
H  -0.800  -0.000  0.512
    3
step 1892
O  0.000  0.000  -0.064
H  0.781  -0.000  0.505
H  -0.786  -0.000  0.508
    3
step 1893
O  0.000  0.000  -0.063
H  0.765  -0.000  0.500
H  -0.772  -0.000  0.504
    3
step 1894
O  0.000  -0.000  -0.063
H  0.751  -0.000  0.496
H  -0.758  0.000  0.500
    3
step 1895
O  0.000  -0.000  -0.062
H  0.741  -0.000  0.494
H  -0.746  0.000  0.497
    3
step 1896
O  0.000  0.000  -0.062
H  0.734  -0.000  0.494
H  -0.738  -0.000  0.496
    3
step 1897
O  0.000  0.000  -0.063
H  0.733  0.000  0.498
H  -0.735  -0.000  0.499
    3
step 1898
O  -0.000  0.000  -0.064
H  0.737  -0.000  0.505
H  -0.736  -0.000  0.504
    3
step 1899
O  -0.000  -0.000  -0.065
H  0.745  0.000  0.514
H  -0.741  -0.000  0.512
    3
step 1900
O  -0.000  0.000  -0.066
H  0.756  0.000  0.524
H  -0.750  -0.000  0.521
    3
step 1901
O  -0.000  -0.000  -0.067
H  0.767  0.000  0.535
H  -0.760  0.000  0.530
    3
step 1902
O  -0.000  -0.000  -0.068
H  0.778  0.000  0.544
H  -0.771  0.000  0.540
    3
step 1903
O  -0.000  0.000  -0.069
H  0.787  -0.000  0.551
H  -0.781  0.000  0.547
    3
step 1904
O  -0.000  0.000  -0.070
H  0.794  -0.000  0.555
H  -0.789  -0.000  0.552
    3
step 1905
O  -0.000  -0.000  -0.070
H  0.797  0.000  0.556
H  -0.794  -0.000  0.555
    3
step 1906
O  -0.000  -0.000  -0.070
H  0.797  0.000  0.554
H  -0.796  -0.000  0.554
    3
step 1907
O  0.000  0.000  -0.069
H  0.793  -0.000  0.549
H  -0.795  -0.000  0.550
    3
step 1908
O  0.000  -0.000  -0.068
H  0.786  0.000  0.541
H  -0.790  -0.000  0.543
    3
step 1909
O  0.000  -0.000  -0.067
H  0.777  0.000  0.531
H  -0.783  0.000  0.534
    3
step 1910
O  0.000  0.000  -0.066
H  0.767  -0.000  0.519
H  -0.774  -0.000  0.523
    3
step 1911
O  0.000  0.000  -0.064
H  0.758  -0.000  0.507
H  -0.764  0.000  0.511
    3
step 1912
O  0.000  0.000  -0.063
H  0.750  0.000  0.496
H  -0.755  -0.000  0.499
    3
step 1913
O  0.000  0.000  -0.062
H  0.746  -0.000  0.487
H  -0.749  -0.000  0.489
    3
step 1914
O  0.000  -0.000  -0.061
H  0.746  0.000  0.481
H  -0.747  0.000  0.482
    3
step 1915
O  -0.000  0.000  -0.060
H  0.751  -0.000  0.479
H  -0.749  -0.000  0.478
    3
step 1916
O  -0.000  0.000  -0.060
H  0.760  -0.000  0.479
H  -0.756  -0.000  0.477
    3
step 1917
O  -0.000  0.000  -0.061
H  0.773  -0.000  0.483
H  -0.767  -0.000  0.479
    3
step 1918
O  -0.000  -0.000  -0.061
H  0.788  0.000  0.487
H  -0.781  -0.000  0.483
    3
step 1919
O  -0.000  0.000  -0.062
H  0.802  -0.000  0.493
H  -0.796  0.000  0.489
    3
step 1920
O  -0.000  0.000  -0.062
H  0.816  0.000  0.498
H  -0.810  -0.000  0.494
    3
step 1921
O  -0.000  0.000  -0.063
H  0.826  0.000  0.501
H  -0.823  -0.000  0.499
    3
step 1922
O  -0.000  0.000  -0.063
H  0.833  0.000  0.504
H  -0.832  -0.000  0.503
    3
step 1923
O  0.000  -0.000  -0.064
H  0.836  0.000  0.504
H  -0.837  0.000  0.504
    3
step 1924
O  0.000  -0.000  -0.063
H  0.834  0.000  0.502
H  -0.837  0.000  0.504
    3
step 1925
O  0.000  0.000  -0.063
H  0.828  0.000  0.498
H  -0.834  -0.000  0.501
    3
step 1926
O  0.000  -0.000  -0.062
H  0.819  0.000  0.493
H  -0.825  0.000  0.497
    3
step 1927
O  0.000  -0.000  -0.062
H  0.807  -0.000  0.487
H  -0.814  0.000  0.491
    3
step 1928
O  0.000  -0.000  -0.061
H  0.793  -0.000  0.480
H  -0.800  0.000  0.484
    3
step 1929
O  0.000  -0.000  -0.060
H  0.779  0.000  0.475
H  -0.785  0.000  0.478
    3
step 1930
O  0.000  -0.000  -0.059
H  0.767  0.000  0.471
H  -0.771  0.000  0.472
    3
step 1931
O  0.000  -0.000  -0.059
H  0.759  0.000  0.469
H  -0.759  -0.000  0.469
    3
step 1932
O  -0.000  0.000  -0.059
H  0.754  -0.000  0.471
H  -0.752  -0.000  0.470
    3
step 1933
O  -0.000  0.000  -0.060
H  0.754  -0.000  0.476
H  -0.749  0.000  0.473
    3
step 1934
O  -0.000  0.000  -0.061
H  0.758  -0.000  0.485
H  -0.752  0.000  0.481
    3
step 1935
O  -0.000  -0.000  -0.062
H  0.766  -0.000  0.495
H  -0.759  0.000  0.492
    3
step 1936
O  -0.000  0.000  -0.064
H  0.775  -0.000  0.508
H  -0.769  0.000  0.504
    3
step 1937
O  -0.000  0.000  -0.065
H  0.784  -0.000  0.520
H  -0.780  0.000  0.517
    3
step 1938
O  -0.000  -0.000  -0.067
H  0.792  -0.000  0.531
H  -0.790  0.000  0.530
    3
step 1939
O  0.000  -0.000  -0.068
H  0.798  -0.000  0.540
H  -0.798  0.000  0.540
    3
step 1940
O  0.000  0.000  -0.069
H  0.801  -0.000  0.547
H  -0.804  -0.000  0.548
    3
step 1941
O  0.000  0.000  -0.070
H  0.800  -0.000  0.551
H  -0.805  -0.000  0.554
    3
step 1942
O  0.000  0.000  -0.070
H  0.796  -0.000  0.551
H  -0.803  -0.000  0.555
    3
step 1943
O  0.000  0.000  -0.069
H  0.789  0.000  0.549
H  -0.797  -0.000  0.554
    3
step 1944
O  0.000  0.000  -0.069
H  0.779  -0.000  0.544
H  -0.787  0.000  0.549
    3
step 1945
O  0.000  0.000  -0.068
H  0.767  -0.000  0.537
H  -0.775  -0.000  0.541
    3
step 1946
O  0.000  -0.000  -0.067
H  0.755  0.000  0.529
H  -0.761  0.000  0.532
    3
step 1947
O  0.000  0.000  -0.066
H  0.744  -0.000  0.520
H  -0.747  -0.000  0.522
    3
step 1948
O  0.000  0.000  -0.065
H  0.735  -0.000  0.512
H  -0.735  -0.000  0.512
    3
step 1949
O  -0.000  0.000  -0.064
H  0.729  -0.000  0.506
H  -0.726  0.000  0.504
    3
step 1950
O  -0.000  -0.000  -0.063
H  0.729  0.000  0.503
H  -0.723  0.000  0.500
    3
step 1951
O  -0.000  -0.000  -0.063
H  0.733  0.000  0.503
H  -0.726  0.000  0.498
    3
step 1952
O  -0.000  -0.000  -0.063
H  0.742  0.000  0.505
H  -0.735  0.000  0.501
    3
step 1953
O  -0.000  0.000  -0.064
H  0.755  -0.000  0.509
H  -0.749  -0.000  0.506
    3
step 1954
O  -0.000  0.000  -0.065
H  0.770  -0.000  0.515
H  -0.765  -0.000  0.512
    3
step 1955
O  -0.000  0.000  -0.065
H  0.785  0.000  0.520
H  -0.783  0.000  0.519
    3
step 1956
O  0.000  -0.000  -0.066
H  0.798  0.000  0.524
H  -0.800  0.000  0.525
    3
step 1957
O  0.000  -0.000  -0.066
H  0.810  0.000  0.527
H  -0.814  0.000  0.529
    3
step 1958
O  0.000  0.000  -0.067
H  0.818  -0.000  0.527
H  -0.824  -0.000  0.530
    3
step 1959
O  0.000  0.000  -0.066
H  0.823  -0.000  0.524
H  -0.830  -0.000  0.529
    3
step 1960
O  0.001  0.000  -0.066
H  0.823  -0.000  0.520
H  -0.831  -0.000  0.525
    3
step 1961
O  0.001  -0.000  -0.065
H  0.820  0.000  0.513
H  -0.828  0.000  0.517
    3
step 1962
O  0.000  0.000  -0.064
H  0.813  -0.000  0.503
H  -0.820  -0.000  0.508
    3
step 1963
O  0.000  -0.000  -0.062
H  0.803  0.000  0.493
H  -0.809  0.000  0.496
    3
step 1964
O  0.000  0.000  -0.061
H  0.792  -0.000  0.482
H  -0.795  -0.000  0.484
    3
step 1965
O  -0.000  -0.000  -0.059
H  0.781  0.000  0.472
H  -0.781  0.000  0.472
    3
step 1966
O  -0.000  0.000  -0.058
H  0.771  -0.000  0.463
H  -0.768  -0.000  0.462
    3
step 1967
O  -0.000  0.000  -0.057
H  0.765  0.000  0.458
H  -0.759  -0.000  0.454
    3
step 1968
O  -0.000  -0.000  -0.057
H  0.763  -0.000  0.455
H  -0.756  0.000  0.451
    3
step 1969
O  -0.000  0.000  -0.057
H  0.766  -0.000  0.457
H  -0.759  -0.000  0.453
    3
step 1970
O  -0.000  0.000  -0.058
H  0.773  0.000  0.462
H  -0.767  0.000  0.459
    3
step 1971
O  -0.000  0.000  -0.059
H  0.783  -0.000  0.470
H  -0.780  -0.000  0.468
    3
step 1972
O  -0.000  0.000  -0.060
H  0.795  -0.000  0.480
H  -0.795  0.000  0.480
    3
step 1973
O  0.000  0.000  -0.062
H  0.807  -0.000  0.491
H  -0.809  -0.000  0.492
    3
step 1974
O  0.000  -0.000  -0.063
H  0.817  0.000  0.501
H  -0.822  0.000  0.504
    3
step 1975
O  0.000  -0.000  -0.065
H  0.824  0.000  0.510
H  -0.832  -0.000  0.514
    3
step 1976
O  0.001  -0.000  -0.065
H  0.828  0.000  0.517
H  -0.837  -0.000  0.522
    3
step 1977
O  0.001  0.000  -0.066
H  0.828  0.000  0.521
H  -0.837  -0.000  0.527
    3
step 1978
O  0.001  -0.000  -0.066
H  0.823  0.000  0.524
H  -0.832  -0.000  0.529
    3
step 1979
O  0.000  -0.000  -0.066
H  0.814  0.000  0.523
H  -0.822  0.000  0.528
    3
step 1980
O  0.000  0.000  -0.066
H  0.802  -0.000  0.521
H  -0.808  0.000  0.524
    3
step 1981
O  0.000  -0.000  -0.065
H  0.787  0.000  0.517
H  -0.790  0.000  0.518
    3
step 1982
O  -0.000  0.000  -0.064
H  0.771  0.000  0.511
H  -0.771  -0.000  0.511
    3
step 1983
O  -0.000  -0.000  -0.064
H  0.755  0.000  0.506
H  -0.752  0.000  0.504
    3
step 1984
O  -0.000  -0.000  -0.063
H  0.741  0.000  0.502
H  -0.735  -0.000  0.498
    3
step 1985
O  -0.000  0.000  -0.063
H  0.731  -0.000  0.500
H  -0.723  0.000  0.496
    3
step 1986
O  -0.000  -0.000  -0.063
H  0.726  0.000  0.501
H  -0.718  0.000  0.497
    3
step 1987
O  -0.000  -0.000  -0.063
H  0.726  0.000  0.505
H  -0.720  -0.000  0.502
    3
step 1988
O  -0.000  0.000  -0.064
H  0.731  -0.000  0.513
H  -0.728  -0.000  0.511
    3
step 1989
O  -0.000  0.000  -0.066
H  0.741  -0.000  0.522
H  -0.741  0.000  0.522
    3
step 1990
O  0.000  0.000  -0.067
H  0.753  -0.000  0.533
H  -0.756  -0.000  0.535
    3
step 1991
O  0.000  -0.000  -0.069
H  0.766  0.000  0.543
H  -0.772  0.000  0.547
    3
step 1992
O  0.001  0.000  -0.070
H  0.779  -0.000  0.551
H  -0.787  0.000  0.556
    3
step 1993
O  0.001  0.000  -0.071
H  0.790  -0.000  0.558
H  -0.799  -0.000  0.563
    3
step 1994
O  0.001  0.000  -0.071
H  0.797  -0.000  0.561
H  -0.807  0.000  0.567
    3
step 1995
O  0.001  -0.000  -0.071
H  0.802  0.000  0.560
H  -0.811  -0.000  0.566
    3
step 1996
O  0.000  -0.000  -0.070
H  0.803  0.000  0.556
H  -0.810  0.000  0.561
    3
step 1997
O  0.000  0.000  -0.069
H  0.799  -0.000  0.549
H  -0.805  0.000  0.552
    3
step 1998
O  0.000  -0.000  -0.068
H  0.793  0.000  0.539
H  -0.796  0.000  0.540
    3
step 1999
O  -0.000  0.000  -0.066
H  0.784  -0.000  0.526
H  -0.784  0.000  0.525
    3
step 2000
O  -0.000  0.000  -0.064
H  0.774  0.000  0.512
H  -0.770  -0.000  0.509
