       6
 i =        0, time =        0.000, E =      -180.7414052415
 Ti         2.3266360760        2.3266360760        1.4846014980
 Ti         0.0000000000        0.0000000000        0.0000000000
  O         0.9093424080        3.7439296250        1.4846014980
  O         3.7439296250        0.9093424080        1.4846014980
  O         1.4172936680        1.4172936680        0.0000000000
  O         3.2359786030        3.2359786030        0.0000000000
       6
 i =        1, time =        1.000, E =      -180.7455178607
 Ti         2.3271913874        2.3268228947        1.4837721700
 Ti        -0.0021850186        0.0016669726       -0.0013958310
  O         0.9026785149        3.7447337175        1.4799220333
  O         3.7509149054        0.9041654394        1.4880389734
  O         1.4236243728        1.4177415460        0.0013501541
  O         3.2342022682        3.2343574288        0.0065490652
       6
 i =        2, time =        2.000, E =      -180.7523485033
 Ti         2.3277447169        2.3270491428        1.4828238286
 Ti        -0.0045337751        0.0034542540       -0.0029292637
  O         0.8933565189        3.7477952124        1.4750402392
  O         3.7606976400        0.8963168647        1.4917194436
  O         1.4327322128        1.4205161723        0.0029019737
  O         3.2300317129        3.2303149463        0.0135874591
       6
 i =        3, time =        3.000, E =      -180.7612585051
 Ti         2.3282273731        2.3273305199        1.4817376254
 Ti        -0.0069451950        0.0052801544       -0.0045695394
  O         0.8819393387        3.7528766891        1.4703184662
  O         3.7728109680        0.8861602462        1.4954698717
  O         1.4442135895        1.4254910855        0.0046927534
  O         3.2236878476        3.2240274784        0.0208234879
       6
 i =        4, time =        4.000, E =      -180.7714332992
 Ti         2.3285926517        2.3276871586        1.4804681988
 Ti        -0.0093948827        0.0071216486       -0.0063346048
  O         0.8688603655        3.7597111252        1.4659440679
  O         3.7869142401        0.8739749829        1.4992382534
  O         1.4577737425        1.4324916521        0.0068001522
  O         3.2153978893        3.2156853358        0.0282160842
       6
 i =        5, time =        5.000, E =      -180.7820715809
 Ti         2.3288039541        2.3281432790        1.4789526059
 Ti        -0.0119011160        0.0089880145       -0.0082724056
  O         0.8544291808        3.7680801282        1.4620109736
  O         3.8027864723        0.8599619782        1.5030468146
  O         1.4732273058        1.4413849690        0.0093277362
  O         3.2053347501        3.2054259769        0.0358767137
       6
 i =        6, time =        6.000, E =      -180.7922630243
 Ti         2.3288200152        2.3287060394        1.4771856242
 Ti        -0.0143931989        0.0108223756       -0.0103623326
  O         0.8394607662        3.7774117487        1.4587356655
  O         3.8196664509        0.8448645793        1.5068069438
  O         1.4898320913        1.4516464718        0.0122835711
  O         3.1941044734        3.1938291324        0.0436649778
       6
 i =        7, time =        7.000, E =      -180.8017571363
 Ti         2.3286081359        2.3294081043        1.4750832247
 Ti        -0.0169284101        0.0126623409       -0.0126868122
  O         0.8239292236        3.7875409313        1.4561364639
  O         3.8377129591        0.8286248343        1.5106268822
  O         1.5077567170        1.4631719071        0.0158101074
  O         3.1818209907        3.1809706470        0.0518402702
       6
 i =        8, time =        8.000, E =      -180.8097703092
 Ti         2.3281307937        2.3302741389        1.4725961132
 Ti        -0.0195130735        0.0145060274       -0.0152900456
  O         0.8080803268        3.7981046475        1.4543101206
  O         3.8567202836        0.8114266235        1.5145401491
  O         1.5268501847        1.4756349156        0.0199921910
  O         3.1688048927        3.1671328748        0.0604847750
       6
 i =        9, time =        9.000, E =      -180.8155109916
 Ti         2.3273439798        2.3313352998        1.4696710264
 Ti        -0.0221588349        0.0163525099       -0.0182251210
  O         0.7922054350        3.8087822768        1.4533585062
  O         3.8764006751        0.7934890688        1.5185908970
  O         1.5468818754        1.4887673742        0.0249337026
  O         3.1552919533        3.1524993859        0.0696662726
       6
 i =       10, time =       10.000, E =      -180.8187615877
 Ti         2.3261777406        2.3326516074        1.4661990297
 Ti        -0.0249242492        0.0182300742       -0.0216056621
  O         0.7763722977        3.8194853199        1.4533898808
  O         3.8968620531        0.7748097532        1.5229016519
  O         1.5680060579        1.5025952224        0.0308510961
  O         3.1412470136        3.1369552297        0.0795904663
       6
 i =       11, time =       11.000, E =      -180.8190800047
 Ti         2.3245568597        2.3342807771        1.4621124158
 Ti        -0.0278256001        0.0201326642       -0.0255108162
  O         0.7608440124        3.8299732729        1.4545628278
  O         3.9180319714        0.7556122031        1.5275267308
  O         1.5902270682        1.5169289660        0.0379105689
  O         3.1269070822        3.1206777711        0.0903038054
       6
 i =       12, time =       12.000, E =      -180.8160116812
 Ti         2.3225551595        2.3361339088        1.4577424899
 Ti        -0.0306109449        0.0218742977       -0.0296515470
  O         0.7471815679        3.8390546962        1.4569051266
  O         3.9378234599        0.7377765361        1.5320765499
  O         1.6114663092        1.5301807262        0.0456092860
  O         3.1139221111        3.1054251435        0.1008666707
       6
 i =       13, time =       13.000, E =      -180.8100548003
 Ti         2.3200585562        2.3383106101        1.4529860722
 Ti        -0.0333466666        0.0234706172       -0.0341652169
  O         0.7352200384        3.8466822683        1.4605750871
  O         3.9564148751        0.7211315787        1.5366475865
  O         1.6320227507        1.5422862525        0.0542060824
  O         3.1023502087        3.0910865768        0.1115738872
       6
 i =       14, time =       14.000, E =      -180.8025912825
 Ti         2.3170787450        2.3407990755        1.4480305785
 Ti        -0.0359322655        0.0248293928       -0.0389238367
  O         0.7255885594        3.8523140388        1.4655497580
  O         3.9729787502        0.7066071622        1.5410264895
  O         1.6511111915        1.5524537860        0.0634215858
  O         3.0929123156        3.0783360890        0.1220965302
       6
 i =       15, time =       15.000, E =      -180.7943104886
 Ti         2.3134076772        2.3437751844        1.4427220677
 Ti        -0.0384597501        0.0259548901       -0.0441370734
  O         0.7181515021        3.8558900547        1.4721356718
  O         3.9880394468        0.6939499881        1.5452920527
  O         1.6694647865        1.5607366187        0.0735775393
  O         3.0855454269        3.0668530712        0.1328613203
       6
 i =       16, time =       16.000, E =      -180.7871533177
 Ti         2.3093256603        2.3470202495        1.4376611344
 Ti        -0.0406667797        0.0266808670       -0.0492864060
  O         0.7138169043        3.8568482787        1.4797260773
  O         3.9999431059        0.6846211424        1.5488925180
  O         1.6851504675        1.5660218796        0.0835270333
  O         3.0812513010        3.0579763905        0.1427352424
       6
 i =       17, time =       17.000, E =      -180.7822265273
 Ti         2.3045659417        2.3507606077        1.4327005058
 Ti        -0.0426507004        0.0269890866       -0.0545980817
  O         0.7124411994        3.8551341735        1.4886556253
  O         4.0091286013        0.6782890607        1.5518580105
  O         1.6988377863        1.5683366430        0.0935569319
  O         3.0800309730        3.0514479833        0.1520620947
       6
 i =       18, time =       18.000, E =      -180.7809356512
 Ti         2.2991799308        2.3549736719        1.4280854651
 Ti        -0.0443466168        0.0268089703       -0.0598983514
  O         0.7141324979        3.8507112077        1.4986372235
  O         4.0152252017        0.6752775380        1.5539481485
  O         1.7101359150        1.5673571837        0.1032073595
  O         3.0821531851        3.0476176322        0.1604182655
       6
 i =       19, time =       19.000, E =      -180.7840835011
 Ti         2.2931873759        2.3596661567        1.4239900871
 Ti        -0.0457287541        0.0260921141       -0.0650762355
  O         0.7188386920        3.8436738464        1.5094638999
  O         4.0181619967        0.6756834797        1.5550016466
  O         1.7189710233        1.5629362857        0.1121791999
  O         3.0877181791        3.0466014067        0.1675506814
       6
 i =       20, time =       20.000, E =      -180.7917244171
 Ti         2.2866416157        2.3648211354        1.4205622821
 Ti        -0.0467888588        0.0248154565       -0.0700268389
  O         0.7263711009        3.8342525343        1.5209479375
  O         4.0180397716        0.6794320089        1.5549254122
  O         1.7253604778        1.5550949260        0.1202125955
  O         3.0966570601        3.0483566740        0.1732921926
